* SANKHYA pooling instance adhya4, PQ-formulation (#516).
* GENERATED by bench/runners/pooling_models.py from data/pooling/instances/adhya4.json; do not edit.
* Data: Alfaki and Haugland, standard pooling instance Adhya4.gms
* (sha256 9da63c038eb6a921e3ed2d9fdfe03f0b065dfdaba9c0ac2b2c5dfd2e9f8ad4f2).
* Source paper and published optimum: data/pooling/reference.json.
* Minimize total arc cost. Quadratic rows use QCMATRIX (full symmetric, no 1/2).
*
* PQ-formulation (Quesada and Grossmann 1995; Tawarmalani and Sahinidis 2002)
NAME adhya4_pq
ROWS
 N cost
 L src_1
 L src_2
 L src_3
 L src_4
 L src_5
 L src_6
 L src_7
 L src_8
 L dem_11
 L dem_12
 L dem_13
 L dem_14
 L dem_15
 E sumq_9
 L cap_9
 E sumq_10
 L cap_10
 L tq_11_1
 L tq_11_2
 L tq_11_3
 L tq_11_4
 L tq_12_1
 L tq_12_2
 L tq_12_3
 L tq_12_4
 L tq_13_1
 L tq_13_2
 L tq_13_3
 L tq_13_4
 L tq_14_1
 L tq_14_2
 L tq_14_3
 L tq_14_4
 L tq_15_1
 L tq_15_2
 L tq_15_3
 L tq_15_4
 E path_1_9_11
 E path_1_9_12
 E path_1_9_13
 E path_1_9_14
 E path_1_9_15
 E path_2_9_11
 E path_2_9_12
 E path_2_9_13
 E path_2_9_14
 E path_2_9_15
 E path_3_9_11
 E path_3_9_12
 E path_3_9_13
 E path_3_9_14
 E path_3_9_15
 E path_4_9_11
 E path_4_9_12
 E path_4_9_13
 E path_4_9_14
 E path_4_9_15
 E path_5_10_11
 E path_5_10_12
 E path_5_10_13
 E path_5_10_14
 E path_5_10_15
 E path_6_10_11
 E path_6_10_12
 E path_6_10_13
 E path_6_10_14
 E path_6_10_15
 E path_7_10_11
 E path_7_10_12
 E path_7_10_13
 E path_7_10_14
 E path_7_10_15
 E path_8_10_11
 E path_8_10_12
 E path_8_10_13
 E path_8_10_14
 E path_8_10_15
 E rlt_9_11
 E rlt_9_12
 E rlt_9_13
 E rlt_9_14
 E rlt_9_15
 L rltc_1_9
 L rltc_2_9
 L rltc_3_9
 L rltc_4_9
 E rlt_10_11
 E rlt_10_12
 E rlt_10_13
 E rlt_10_14
 E rlt_10_15
 L rltc_5_10
 L rltc_6_10
 L rltc_7_10
 L rltc_8_10
COLUMNS
 q_1_9 sumq_9 1
 q_1_9 rltc_1_9 -85
 q_2_9 sumq_9 1
 q_2_9 rltc_2_9 -85
 q_3_9 sumq_9 1
 q_3_9 rltc_3_9 -85
 q_4_9 sumq_9 1
 q_4_9 rltc_4_9 -85
 q_5_10 sumq_10 1
 q_5_10 rltc_5_10 -85
 q_6_10 sumq_10 1
 q_6_10 rltc_6_10 -85
 q_7_10 sumq_10 1
 q_7_10 rltc_7_10 -85
 q_8_10 sumq_10 1
 q_8_10 rltc_8_10 -85
 f_9_11 cost -10
 f_9_11 dem_11 1
 f_9_11 cap_9 1
 f_9_11 tq_11_1 -1.2
 f_9_11 tq_11_2 -1.7
 f_9_11 tq_11_3 -1.4
 f_9_11 tq_11_4 -1.7
 f_9_11 rlt_9_11 -1
 f_9_12 cost -25
 f_9_12 dem_12 1
 f_9_12 cap_9 1
 f_9_12 tq_12_1 -1.4
 f_9_12 tq_12_2 -1.3
 f_9_12 tq_12_3 -1.8
 f_9_12 tq_12_4 -1.4
 f_9_12 rlt_9_12 -1
 f_9_13 cost -30
 f_9_13 dem_13 1
 f_9_13 cap_9 1
 f_9_13 tq_13_1 -1.3
 f_9_13 tq_13_2 -1.3
 f_9_13 tq_13_3 -1.9
 f_9_13 tq_13_4 -1.9
 f_9_13 rlt_9_13 -1
 f_9_14 cost -6
 f_9_14 dem_14 1
 f_9_14 cap_9 1
 f_9_14 tq_14_1 -1.2
 f_9_14 tq_14_2 -1.1
 f_9_14 tq_14_3 -1.7
 f_9_14 tq_14_4 -1.6
 f_9_14 rlt_9_14 -1
 f_9_15 cost -10
 f_9_15 dem_15 1
 f_9_15 cap_9 1
 f_9_15 tq_15_1 -1.6
 f_9_15 tq_15_2 -1.9
 f_9_15 tq_15_3 -2
 f_9_15 tq_15_4 -2.5
 f_9_15 rlt_9_15 -1
 f_10_11 cost -10
 f_10_11 dem_11 1
 f_10_11 cap_10 1
 f_10_11 tq_11_1 -1.2
 f_10_11 tq_11_2 -1.7
 f_10_11 tq_11_3 -1.4
 f_10_11 tq_11_4 -1.7
 f_10_11 rlt_10_11 -1
 f_10_12 cost -25
 f_10_12 dem_12 1
 f_10_12 cap_10 1
 f_10_12 tq_12_1 -1.4
 f_10_12 tq_12_2 -1.3
 f_10_12 tq_12_3 -1.8
 f_10_12 tq_12_4 -1.4
 f_10_12 rlt_10_12 -1
 f_10_13 cost -30
 f_10_13 dem_13 1
 f_10_13 cap_10 1
 f_10_13 tq_13_1 -1.3
 f_10_13 tq_13_2 -1.3
 f_10_13 tq_13_3 -1.9
 f_10_13 tq_13_4 -1.9
 f_10_13 rlt_10_13 -1
 f_10_14 cost -6
 f_10_14 dem_14 1
 f_10_14 cap_10 1
 f_10_14 tq_14_1 -1.2
 f_10_14 tq_14_2 -1.1
 f_10_14 tq_14_3 -1.7
 f_10_14 tq_14_4 -1.6
 f_10_14 rlt_10_14 -1
 f_10_15 cost -10
 f_10_15 dem_15 1
 f_10_15 cap_10 1
 f_10_15 tq_15_1 -1.6
 f_10_15 tq_15_2 -1.9
 f_10_15 tq_15_3 -2
 f_10_15 tq_15_4 -2.5
 f_10_15 rlt_10_15 -1
 v_1_9_11 cost 15
 v_1_9_11 src_1 1
 v_1_9_11 tq_11_1 0.5
 v_1_9_11 tq_11_2 1.9
 v_1_9_11 tq_11_3 1.3
 v_1_9_11 tq_11_4 1
 v_1_9_11 path_1_9_11 1
 v_1_9_11 rlt_9_11 1
 v_1_9_11 rltc_1_9 1
 v_1_9_12 cost 15
 v_1_9_12 src_1 1
 v_1_9_12 tq_12_1 0.5
 v_1_9_12 tq_12_2 1.9
 v_1_9_12 tq_12_3 1.3
 v_1_9_12 tq_12_4 1
 v_1_9_12 path_1_9_12 1
 v_1_9_12 rlt_9_12 1
 v_1_9_12 rltc_1_9 1
 v_1_9_13 cost 15
 v_1_9_13 src_1 1
 v_1_9_13 tq_13_1 0.5
 v_1_9_13 tq_13_2 1.9
 v_1_9_13 tq_13_3 1.3
 v_1_9_13 tq_13_4 1
 v_1_9_13 path_1_9_13 1
 v_1_9_13 rlt_9_13 1
 v_1_9_13 rltc_1_9 1
 v_1_9_14 cost 15
 v_1_9_14 src_1 1
 v_1_9_14 tq_14_1 0.5
 v_1_9_14 tq_14_2 1.9
 v_1_9_14 tq_14_3 1.3
 v_1_9_14 tq_14_4 1
 v_1_9_14 path_1_9_14 1
 v_1_9_14 rlt_9_14 1
 v_1_9_14 rltc_1_9 1
 v_1_9_15 cost 15
 v_1_9_15 src_1 1
 v_1_9_15 tq_15_1 0.5
 v_1_9_15 tq_15_2 1.9
 v_1_9_15 tq_15_3 1.3
 v_1_9_15 tq_15_4 1
 v_1_9_15 path_1_9_15 1
 v_1_9_15 rlt_9_15 1
 v_1_9_15 rltc_1_9 1
 v_2_9_11 cost 7
 v_2_9_11 src_2 1
 v_2_9_11 tq_11_1 1.4
 v_2_9_11 tq_11_2 1.8
 v_2_9_11 tq_11_3 1.7
 v_2_9_11 tq_11_4 1.6
 v_2_9_11 path_2_9_11 1
 v_2_9_11 rlt_9_11 1
 v_2_9_11 rltc_2_9 1
 v_2_9_12 cost 7
 v_2_9_12 src_2 1
 v_2_9_12 tq_12_1 1.4
 v_2_9_12 tq_12_2 1.8
 v_2_9_12 tq_12_3 1.7
 v_2_9_12 tq_12_4 1.6
 v_2_9_12 path_2_9_12 1
 v_2_9_12 rlt_9_12 1
 v_2_9_12 rltc_2_9 1
 v_2_9_13 cost 7
 v_2_9_13 src_2 1
 v_2_9_13 tq_13_1 1.4
 v_2_9_13 tq_13_2 1.8
 v_2_9_13 tq_13_3 1.7
 v_2_9_13 tq_13_4 1.6
 v_2_9_13 path_2_9_13 1
 v_2_9_13 rlt_9_13 1
 v_2_9_13 rltc_2_9 1
 v_2_9_14 cost 7
 v_2_9_14 src_2 1
 v_2_9_14 tq_14_1 1.4
 v_2_9_14 tq_14_2 1.8
 v_2_9_14 tq_14_3 1.7
 v_2_9_14 tq_14_4 1.6
 v_2_9_14 path_2_9_14 1
 v_2_9_14 rlt_9_14 1
 v_2_9_14 rltc_2_9 1
 v_2_9_15 cost 7
 v_2_9_15 src_2 1
 v_2_9_15 tq_15_1 1.4
 v_2_9_15 tq_15_2 1.8
 v_2_9_15 tq_15_3 1.7
 v_2_9_15 tq_15_4 1.6
 v_2_9_15 path_2_9_15 1
 v_2_9_15 rlt_9_15 1
 v_2_9_15 rltc_2_9 1
 v_3_9_11 cost 4
 v_3_9_11 src_3 1
 v_3_9_11 tq_11_1 1.2
 v_3_9_11 tq_11_2 1.9
 v_3_9_11 tq_11_3 1.4
 v_3_9_11 tq_11_4 1.4
 v_3_9_11 path_3_9_11 1
 v_3_9_11 rlt_9_11 1
 v_3_9_11 rltc_3_9 1
 v_3_9_12 cost 4
 v_3_9_12 src_3 1
 v_3_9_12 tq_12_1 1.2
 v_3_9_12 tq_12_2 1.9
 v_3_9_12 tq_12_3 1.4
 v_3_9_12 tq_12_4 1.4
 v_3_9_12 path_3_9_12 1
 v_3_9_12 rlt_9_12 1
 v_3_9_12 rltc_3_9 1
 v_3_9_13 cost 4
 v_3_9_13 src_3 1
 v_3_9_13 tq_13_1 1.2
 v_3_9_13 tq_13_2 1.9
 v_3_9_13 tq_13_3 1.4
 v_3_9_13 tq_13_4 1.4
 v_3_9_13 path_3_9_13 1
 v_3_9_13 rlt_9_13 1
 v_3_9_13 rltc_3_9 1
 v_3_9_14 cost 4
 v_3_9_14 src_3 1
 v_3_9_14 tq_14_1 1.2
 v_3_9_14 tq_14_2 1.9
 v_3_9_14 tq_14_3 1.4
 v_3_9_14 tq_14_4 1.4
 v_3_9_14 path_3_9_14 1
 v_3_9_14 rlt_9_14 1
 v_3_9_14 rltc_3_9 1
 v_3_9_15 cost 4
 v_3_9_15 src_3 1
 v_3_9_15 tq_15_1 1.2
 v_3_9_15 tq_15_2 1.9
 v_3_9_15 tq_15_3 1.4
 v_3_9_15 tq_15_4 1.4
 v_3_9_15 path_3_9_15 1
 v_3_9_15 rlt_9_15 1
 v_3_9_15 rltc_3_9 1
 v_4_9_11 cost 5
 v_4_9_11 src_4 1
 v_4_9_11 tq_11_1 1.5
 v_4_9_11 tq_11_2 1.2
 v_4_9_11 tq_11_3 1.7
 v_4_9_11 tq_11_4 1.3
 v_4_9_11 path_4_9_11 1
 v_4_9_11 rlt_9_11 1
 v_4_9_11 rltc_4_9 1
 v_4_9_12 cost 5
 v_4_9_12 src_4 1
 v_4_9_12 tq_12_1 1.5
 v_4_9_12 tq_12_2 1.2
 v_4_9_12 tq_12_3 1.7
 v_4_9_12 tq_12_4 1.3
 v_4_9_12 path_4_9_12 1
 v_4_9_12 rlt_9_12 1
 v_4_9_12 rltc_4_9 1
 v_4_9_13 cost 5
 v_4_9_13 src_4 1
 v_4_9_13 tq_13_1 1.5
 v_4_9_13 tq_13_2 1.2
 v_4_9_13 tq_13_3 1.7
 v_4_9_13 tq_13_4 1.3
 v_4_9_13 path_4_9_13 1
 v_4_9_13 rlt_9_13 1
 v_4_9_13 rltc_4_9 1
 v_4_9_14 cost 5
 v_4_9_14 src_4 1
 v_4_9_14 tq_14_1 1.5
 v_4_9_14 tq_14_2 1.2
 v_4_9_14 tq_14_3 1.7
 v_4_9_14 tq_14_4 1.3
 v_4_9_14 path_4_9_14 1
 v_4_9_14 rlt_9_14 1
 v_4_9_14 rltc_4_9 1
 v_4_9_15 cost 5
 v_4_9_15 src_4 1
 v_4_9_15 tq_15_1 1.5
 v_4_9_15 tq_15_2 1.2
 v_4_9_15 tq_15_3 1.7
 v_4_9_15 tq_15_4 1.3
 v_4_9_15 path_4_9_15 1
 v_4_9_15 rlt_9_15 1
 v_4_9_15 rltc_4_9 1
 v_5_10_11 cost 6
 v_5_10_11 src_5 1
 v_5_10_11 tq_11_1 1.6
 v_5_10_11 tq_11_2 1.8
 v_5_10_11 tq_11_3 1.6
 v_5_10_11 tq_11_4 2
 v_5_10_11 path_5_10_11 1
 v_5_10_11 rlt_10_11 1
 v_5_10_11 rltc_5_10 1
 v_5_10_12 cost 6
 v_5_10_12 src_5 1
 v_5_10_12 tq_12_1 1.6
 v_5_10_12 tq_12_2 1.8
 v_5_10_12 tq_12_3 1.6
 v_5_10_12 tq_12_4 2
 v_5_10_12 path_5_10_12 1
 v_5_10_12 rlt_10_12 1
 v_5_10_12 rltc_5_10 1
 v_5_10_13 cost 6
 v_5_10_13 src_5 1
 v_5_10_13 tq_13_1 1.6
 v_5_10_13 tq_13_2 1.8
 v_5_10_13 tq_13_3 1.6
 v_5_10_13 tq_13_4 2
 v_5_10_13 path_5_10_13 1
 v_5_10_13 rlt_10_13 1
 v_5_10_13 rltc_5_10 1
 v_5_10_14 cost 6
 v_5_10_14 src_5 1
 v_5_10_14 tq_14_1 1.6
 v_5_10_14 tq_14_2 1.8
 v_5_10_14 tq_14_3 1.6
 v_5_10_14 tq_14_4 2
 v_5_10_14 path_5_10_14 1
 v_5_10_14 rlt_10_14 1
 v_5_10_14 rltc_5_10 1
 v_5_10_15 cost 6
 v_5_10_15 src_5 1
 v_5_10_15 tq_15_1 1.6
 v_5_10_15 tq_15_2 1.8
 v_5_10_15 tq_15_3 1.6
 v_5_10_15 tq_15_4 2
 v_5_10_15 path_5_10_15 1
 v_5_10_15 rlt_10_15 1
 v_5_10_15 rltc_5_10 1
 v_6_10_11 cost 3
 v_6_10_11 src_6 1
 v_6_10_11 tq_11_1 1.2
 v_6_10_11 tq_11_2 1.1
 v_6_10_11 tq_11_3 1.4
 v_6_10_11 tq_11_4 2
 v_6_10_11 path_6_10_11 1
 v_6_10_11 rlt_10_11 1
 v_6_10_11 rltc_6_10 1
 v_6_10_12 cost 3
 v_6_10_12 src_6 1
 v_6_10_12 tq_12_1 1.2
 v_6_10_12 tq_12_2 1.1
 v_6_10_12 tq_12_3 1.4
 v_6_10_12 tq_12_4 2
 v_6_10_12 path_6_10_12 1
 v_6_10_12 rlt_10_12 1
 v_6_10_12 rltc_6_10 1
 v_6_10_13 cost 3
 v_6_10_13 src_6 1
 v_6_10_13 tq_13_1 1.2
 v_6_10_13 tq_13_2 1.1
 v_6_10_13 tq_13_3 1.4
 v_6_10_13 tq_13_4 2
 v_6_10_13 path_6_10_13 1
 v_6_10_13 rlt_10_13 1
 v_6_10_13 rltc_6_10 1
 v_6_10_14 cost 3
 v_6_10_14 src_6 1
 v_6_10_14 tq_14_1 1.2
 v_6_10_14 tq_14_2 1.1
 v_6_10_14 tq_14_3 1.4
 v_6_10_14 tq_14_4 2
 v_6_10_14 path_6_10_14 1
 v_6_10_14 rlt_10_14 1
 v_6_10_14 rltc_6_10 1
 v_6_10_15 cost 3
 v_6_10_15 src_6 1
 v_6_10_15 tq_15_1 1.2
 v_6_10_15 tq_15_2 1.1
 v_6_10_15 tq_15_3 1.4
 v_6_10_15 tq_15_4 2
 v_6_10_15 path_6_10_15 1
 v_6_10_15 rlt_10_15 1
 v_6_10_15 rltc_6_10 1
 v_7_10_11 cost 5
 v_7_10_11 src_7 1
 v_7_10_11 tq_11_1 1.5
 v_7_10_11 tq_11_2 1.5
 v_7_10_11 tq_11_3 1.5
 v_7_10_11 tq_11_4 1.5
 v_7_10_11 path_7_10_11 1
 v_7_10_11 rlt_10_11 1
 v_7_10_11 rltc_7_10 1
 v_7_10_12 cost 5
 v_7_10_12 src_7 1
 v_7_10_12 tq_12_1 1.5
 v_7_10_12 tq_12_2 1.5
 v_7_10_12 tq_12_3 1.5
 v_7_10_12 tq_12_4 1.5
 v_7_10_12 path_7_10_12 1
 v_7_10_12 rlt_10_12 1
 v_7_10_12 rltc_7_10 1
 v_7_10_13 cost 5
 v_7_10_13 src_7 1
 v_7_10_13 tq_13_1 1.5
 v_7_10_13 tq_13_2 1.5
 v_7_10_13 tq_13_3 1.5
 v_7_10_13 tq_13_4 1.5
 v_7_10_13 path_7_10_13 1
 v_7_10_13 rlt_10_13 1
 v_7_10_13 rltc_7_10 1
 v_7_10_14 cost 5
 v_7_10_14 src_7 1
 v_7_10_14 tq_14_1 1.5
 v_7_10_14 tq_14_2 1.5
 v_7_10_14 tq_14_3 1.5
 v_7_10_14 tq_14_4 1.5
 v_7_10_14 path_7_10_14 1
 v_7_10_14 rlt_10_14 1
 v_7_10_14 rltc_7_10 1
 v_7_10_15 cost 5
 v_7_10_15 src_7 1
 v_7_10_15 tq_15_1 1.5
 v_7_10_15 tq_15_2 1.5
 v_7_10_15 tq_15_3 1.5
 v_7_10_15 tq_15_4 1.5
 v_7_10_15 path_7_10_15 1
 v_7_10_15 rlt_10_15 1
 v_7_10_15 rltc_7_10 1
 v_8_10_11 cost 5
 v_8_10_11 src_8 1
 v_8_10_11 tq_11_1 1.4
 v_8_10_11 tq_11_2 1.6
 v_8_10_11 tq_11_3 1.2
 v_8_10_11 tq_11_4 1.6
 v_8_10_11 path_8_10_11 1
 v_8_10_11 rlt_10_11 1
 v_8_10_11 rltc_8_10 1
 v_8_10_12 cost 5
 v_8_10_12 src_8 1
 v_8_10_12 tq_12_1 1.4
 v_8_10_12 tq_12_2 1.6
 v_8_10_12 tq_12_3 1.2
 v_8_10_12 tq_12_4 1.6
 v_8_10_12 path_8_10_12 1
 v_8_10_12 rlt_10_12 1
 v_8_10_12 rltc_8_10 1
 v_8_10_13 cost 5
 v_8_10_13 src_8 1
 v_8_10_13 tq_13_1 1.4
 v_8_10_13 tq_13_2 1.6
 v_8_10_13 tq_13_3 1.2
 v_8_10_13 tq_13_4 1.6
 v_8_10_13 path_8_10_13 1
 v_8_10_13 rlt_10_13 1
 v_8_10_13 rltc_8_10 1
 v_8_10_14 cost 5
 v_8_10_14 src_8 1
 v_8_10_14 tq_14_1 1.4
 v_8_10_14 tq_14_2 1.6
 v_8_10_14 tq_14_3 1.2
 v_8_10_14 tq_14_4 1.6
 v_8_10_14 path_8_10_14 1
 v_8_10_14 rlt_10_14 1
 v_8_10_14 rltc_8_10 1
 v_8_10_15 cost 5
 v_8_10_15 src_8 1
 v_8_10_15 tq_15_1 1.4
 v_8_10_15 tq_15_2 1.6
 v_8_10_15 tq_15_3 1.2
 v_8_10_15 tq_15_4 1.6
 v_8_10_15 path_8_10_15 1
 v_8_10_15 rlt_10_15 1
 v_8_10_15 rltc_8_10 1
RHS
 rhs src_1 85
 rhs src_2 85
 rhs src_3 85
 rhs src_4 85
 rhs src_5 85
 rhs src_6 85
 rhs src_7 85
 rhs src_8 85
 rhs dem_11 15
 rhs dem_12 25
 rhs dem_13 10
 rhs dem_14 20
 rhs dem_15 15
 rhs sumq_9 1
 rhs cap_9 85
 rhs sumq_10 1
 rhs cap_10 85
BOUNDS
 UP bnd q_1_9 1
 UP bnd q_2_9 1
 UP bnd q_3_9 1
 UP bnd q_4_9 1
 UP bnd q_5_10 1
 UP bnd q_6_10 1
 UP bnd q_7_10 1
 UP bnd q_8_10 1
 UP bnd f_9_11 15
 UP bnd f_9_12 25
 UP bnd f_9_13 10
 UP bnd f_9_14 20
 UP bnd f_9_15 15
 UP bnd f_10_11 15
 UP bnd f_10_12 25
 UP bnd f_10_13 10
 UP bnd f_10_14 20
 UP bnd f_10_15 15
 UP bnd v_1_9_11 15
 UP bnd v_1_9_12 25
 UP bnd v_1_9_13 10
 UP bnd v_1_9_14 20
 UP bnd v_1_9_15 15
 UP bnd v_2_9_11 15
 UP bnd v_2_9_12 25
 UP bnd v_2_9_13 10
 UP bnd v_2_9_14 20
 UP bnd v_2_9_15 15
 UP bnd v_3_9_11 15
 UP bnd v_3_9_12 25
 UP bnd v_3_9_13 10
 UP bnd v_3_9_14 20
 UP bnd v_3_9_15 15
 UP bnd v_4_9_11 15
 UP bnd v_4_9_12 25
 UP bnd v_4_9_13 10
 UP bnd v_4_9_14 20
 UP bnd v_4_9_15 15
 UP bnd v_5_10_11 15
 UP bnd v_5_10_12 25
 UP bnd v_5_10_13 10
 UP bnd v_5_10_14 20
 UP bnd v_5_10_15 15
 UP bnd v_6_10_11 15
 UP bnd v_6_10_12 25
 UP bnd v_6_10_13 10
 UP bnd v_6_10_14 20
 UP bnd v_6_10_15 15
 UP bnd v_7_10_11 15
 UP bnd v_7_10_12 25
 UP bnd v_7_10_13 10
 UP bnd v_7_10_14 20
 UP bnd v_7_10_15 15
 UP bnd v_8_10_11 15
 UP bnd v_8_10_12 25
 UP bnd v_8_10_13 10
 UP bnd v_8_10_14 20
 UP bnd v_8_10_15 15
QCMATRIX path_1_9_11
 f_9_11 q_1_9 -0.5
 q_1_9 f_9_11 -0.5
QCMATRIX path_1_9_12
 f_9_12 q_1_9 -0.5
 q_1_9 f_9_12 -0.5
QCMATRIX path_1_9_13
 f_9_13 q_1_9 -0.5
 q_1_9 f_9_13 -0.5
QCMATRIX path_1_9_14
 f_9_14 q_1_9 -0.5
 q_1_9 f_9_14 -0.5
QCMATRIX path_1_9_15
 f_9_15 q_1_9 -0.5
 q_1_9 f_9_15 -0.5
QCMATRIX path_2_9_11
 f_9_11 q_2_9 -0.5
 q_2_9 f_9_11 -0.5
QCMATRIX path_2_9_12
 f_9_12 q_2_9 -0.5
 q_2_9 f_9_12 -0.5
QCMATRIX path_2_9_13
 f_9_13 q_2_9 -0.5
 q_2_9 f_9_13 -0.5
QCMATRIX path_2_9_14
 f_9_14 q_2_9 -0.5
 q_2_9 f_9_14 -0.5
QCMATRIX path_2_9_15
 f_9_15 q_2_9 -0.5
 q_2_9 f_9_15 -0.5
QCMATRIX path_3_9_11
 f_9_11 q_3_9 -0.5
 q_3_9 f_9_11 -0.5
QCMATRIX path_3_9_12
 f_9_12 q_3_9 -0.5
 q_3_9 f_9_12 -0.5
QCMATRIX path_3_9_13
 f_9_13 q_3_9 -0.5
 q_3_9 f_9_13 -0.5
QCMATRIX path_3_9_14
 f_9_14 q_3_9 -0.5
 q_3_9 f_9_14 -0.5
QCMATRIX path_3_9_15
 f_9_15 q_3_9 -0.5
 q_3_9 f_9_15 -0.5
QCMATRIX path_4_9_11
 f_9_11 q_4_9 -0.5
 q_4_9 f_9_11 -0.5
QCMATRIX path_4_9_12
 f_9_12 q_4_9 -0.5
 q_4_9 f_9_12 -0.5
QCMATRIX path_4_9_13
 f_9_13 q_4_9 -0.5
 q_4_9 f_9_13 -0.5
QCMATRIX path_4_9_14
 f_9_14 q_4_9 -0.5
 q_4_9 f_9_14 -0.5
QCMATRIX path_4_9_15
 f_9_15 q_4_9 -0.5
 q_4_9 f_9_15 -0.5
QCMATRIX path_5_10_11
 f_10_11 q_5_10 -0.5
 q_5_10 f_10_11 -0.5
QCMATRIX path_5_10_12
 f_10_12 q_5_10 -0.5
 q_5_10 f_10_12 -0.5
QCMATRIX path_5_10_13
 f_10_13 q_5_10 -0.5
 q_5_10 f_10_13 -0.5
QCMATRIX path_5_10_14
 f_10_14 q_5_10 -0.5
 q_5_10 f_10_14 -0.5
QCMATRIX path_5_10_15
 f_10_15 q_5_10 -0.5
 q_5_10 f_10_15 -0.5
QCMATRIX path_6_10_11
 f_10_11 q_6_10 -0.5
 q_6_10 f_10_11 -0.5
QCMATRIX path_6_10_12
 f_10_12 q_6_10 -0.5
 q_6_10 f_10_12 -0.5
QCMATRIX path_6_10_13
 f_10_13 q_6_10 -0.5
 q_6_10 f_10_13 -0.5
QCMATRIX path_6_10_14
 f_10_14 q_6_10 -0.5
 q_6_10 f_10_14 -0.5
QCMATRIX path_6_10_15
 f_10_15 q_6_10 -0.5
 q_6_10 f_10_15 -0.5
QCMATRIX path_7_10_11
 f_10_11 q_7_10 -0.5
 q_7_10 f_10_11 -0.5
QCMATRIX path_7_10_12
 f_10_12 q_7_10 -0.5
 q_7_10 f_10_12 -0.5
QCMATRIX path_7_10_13
 f_10_13 q_7_10 -0.5
 q_7_10 f_10_13 -0.5
QCMATRIX path_7_10_14
 f_10_14 q_7_10 -0.5
 q_7_10 f_10_14 -0.5
QCMATRIX path_7_10_15
 f_10_15 q_7_10 -0.5
 q_7_10 f_10_15 -0.5
QCMATRIX path_8_10_11
 f_10_11 q_8_10 -0.5
 q_8_10 f_10_11 -0.5
QCMATRIX path_8_10_12
 f_10_12 q_8_10 -0.5
 q_8_10 f_10_12 -0.5
QCMATRIX path_8_10_13
 f_10_13 q_8_10 -0.5
 q_8_10 f_10_13 -0.5
QCMATRIX path_8_10_14
 f_10_14 q_8_10 -0.5
 q_8_10 f_10_14 -0.5
QCMATRIX path_8_10_15
 f_10_15 q_8_10 -0.5
 q_8_10 f_10_15 -0.5
ENDATA
