* SANKHYA pooling instance adhya3, P-formulation (#516).
* GENERATED by bench/runners/pooling_models.py from data/pooling/instances/adhya3.json; do not edit.
* Data: Alfaki and Haugland, standard pooling instance Adhya3.gms
* (sha256 e38683722a9b03e796e03867b5db3ed796f3df1bd0a38085281c5df2a98ddd13).
* Source paper and published optimum: data/pooling/reference.json.
* Minimize total arc cost. Quadratic rows use QCMATRIX (full symmetric, no 1/2).
*
* P-formulation (Haverly 1978; Tawarmalani and Sahinidis 2002, ch. 9)
NAME adhya3_p
ROWS
 N cost
 L src_1
 L src_2
 L src_3
 L src_4
 L src_5
 L src_6
 L src_7
 L src_8
 L dem_12
 L dem_13
 L dem_14
 L dem_15
 E bal_9
 L cap_9
 E pq_9_1
 E pq_9_2
 E pq_9_3
 E pq_9_4
 E pq_9_5
 E pq_9_6
 E bal_10
 L cap_10
 E pq_10_1
 E pq_10_2
 E pq_10_3
 E pq_10_4
 E pq_10_5
 E pq_10_6
 E bal_11
 L cap_11
 E pq_11_1
 E pq_11_2
 E pq_11_3
 E pq_11_4
 E pq_11_5
 E pq_11_6
 L tq_12_1
 L tq_12_2
 L tq_12_3
 L tq_12_4
 L tq_12_5
 L tq_12_6
 L tq_13_1
 L tq_13_2
 L tq_13_3
 L tq_13_4
 L tq_13_5
 L tq_13_6
 L tq_14_1
 L tq_14_2
 L tq_14_3
 L tq_14_4
 L tq_14_5
 L tq_14_6
 L tq_15_1
 L tq_15_2
 L tq_15_3
 L tq_15_4
 L tq_15_5
 L tq_15_6
COLUMNS
 f_1_9 cost 7
 f_1_9 src_1 1
 f_1_9 bal_9 1
 f_1_9 cap_9 1
 f_1_9 pq_9_1 1
 f_1_9 pq_9_2 6
 f_1_9 pq_9_3 4
 f_1_9 pq_9_4 0.5
 f_1_9 pq_9_5 5
 f_1_9 pq_9_6 9
 f_2_9 cost 3
 f_2_9 src_2 1
 f_2_9 bal_9 1
 f_2_9 cap_9 1
 f_2_9 pq_9_1 4
 f_2_9 pq_9_2 1
 f_2_9 pq_9_3 3
 f_2_9 pq_9_4 2
 f_2_9 pq_9_5 4
 f_2_9 pq_9_6 4
 f_3_10 cost 2
 f_3_10 src_3 1
 f_3_10 bal_10 1
 f_3_10 cap_10 1
 f_3_10 pq_10_1 4
 f_3_10 pq_10_2 5.5
 f_3_10 pq_10_3 3
 f_3_10 pq_10_4 0.9
 f_3_10 pq_10_5 7
 f_3_10 pq_10_6 10
 f_4_10 cost 10
 f_4_10 src_4 1
 f_4_10 bal_10 1
 f_4_10 cap_10 1
 f_4_10 pq_10_1 3
 f_4_10 pq_10_2 3
 f_4_10 pq_10_3 3
 f_4_10 pq_10_4 1
 f_4_10 pq_10_5 3
 f_4_10 pq_10_6 4
 f_5_10 cost 5
 f_5_10 src_5 1
 f_5_10 bal_10 1
 f_5_10 cap_10 1
 f_5_10 pq_10_1 1
 f_5_10 pq_10_2 2.7
 f_5_10 pq_10_3 4
 f_5_10 pq_10_4 1.6
 f_5_10 pq_10_5 3
 f_5_10 pq_10_6 7
 f_6_11 cost 5
 f_6_11 src_6 1
 f_6_11 bal_11 1
 f_6_11 cap_11 1
 f_6_11 pq_11_1 1.8
 f_6_11 pq_11_2 2.7
 f_6_11 pq_11_3 4
 f_6_11 pq_11_4 3.5
 f_6_11 pq_11_5 6.1
 f_6_11 pq_11_6 3
 f_7_11 cost 9
 f_7_11 src_7 1
 f_7_11 bal_11 1
 f_7_11 cap_11 1
 f_7_11 pq_11_1 5
 f_7_11 pq_11_2 1
 f_7_11 pq_11_3 1.7
 f_7_11 pq_11_4 2.9
 f_7_11 pq_11_5 3.5
 f_7_11 pq_11_6 2.9
 f_8_11 cost 11
 f_8_11 src_8 1
 f_8_11 bal_11 1
 f_8_11 cap_11 1
 f_8_11 pq_11_1 3
 f_8_11 pq_11_2 3
 f_8_11 pq_11_3 3
 f_8_11 pq_11_4 1
 f_8_11 pq_11_5 5
 f_8_11 pq_11_6 2
 f_9_12 cost -16
 f_9_12 dem_12 1
 f_9_12 bal_9 -1
 f_9_12 tq_12_1 -3
 f_9_12 tq_12_2 -3
 f_9_12 tq_12_3 -3.25
 f_9_12 tq_12_4 -0.75
 f_9_12 tq_12_5 -6
 f_9_12 tq_12_6 -5
 f_9_13 cost -25
 f_9_13 dem_13 1
 f_9_13 bal_9 -1
 f_9_13 tq_13_1 -4
 f_9_13 tq_13_2 -2.5
 f_9_13 tq_13_3 -3.5
 f_9_13 tq_13_4 -1.5
 f_9_13 tq_13_5 -7
 f_9_13 tq_13_6 -6
 f_9_14 cost -15
 f_9_14 dem_14 1
 f_9_14 bal_9 -1
 f_9_14 tq_14_1 -1.5
 f_9_14 tq_14_2 -5.5
 f_9_14 tq_14_3 -3.9
 f_9_14 tq_14_4 -0.8
 f_9_14 tq_14_5 -7
 f_9_14 tq_14_6 -6
 f_9_15 cost -10
 f_9_15 dem_15 1
 f_9_15 bal_9 -1
 f_9_15 tq_15_1 -3
 f_9_15 tq_15_2 -4
 f_9_15 tq_15_3 -4
 f_9_15 tq_15_4 -1.8
 f_9_15 tq_15_5 -6
 f_9_15 tq_15_6 -6
 f_10_12 cost -16
 f_10_12 dem_12 1
 f_10_12 bal_10 -1
 f_10_12 tq_12_1 -3
 f_10_12 tq_12_2 -3
 f_10_12 tq_12_3 -3.25
 f_10_12 tq_12_4 -0.75
 f_10_12 tq_12_5 -6
 f_10_12 tq_12_6 -5
 f_10_13 cost -25
 f_10_13 dem_13 1
 f_10_13 bal_10 -1
 f_10_13 tq_13_1 -4
 f_10_13 tq_13_2 -2.5
 f_10_13 tq_13_3 -3.5
 f_10_13 tq_13_4 -1.5
 f_10_13 tq_13_5 -7
 f_10_13 tq_13_6 -6
 f_10_14 cost -15
 f_10_14 dem_14 1
 f_10_14 bal_10 -1
 f_10_14 tq_14_1 -1.5
 f_10_14 tq_14_2 -5.5
 f_10_14 tq_14_3 -3.9
 f_10_14 tq_14_4 -0.8
 f_10_14 tq_14_5 -7
 f_10_14 tq_14_6 -6
 f_10_15 cost -10
 f_10_15 dem_15 1
 f_10_15 bal_10 -1
 f_10_15 tq_15_1 -3
 f_10_15 tq_15_2 -4
 f_10_15 tq_15_3 -4
 f_10_15 tq_15_4 -1.8
 f_10_15 tq_15_5 -6
 f_10_15 tq_15_6 -6
 f_11_12 cost -16
 f_11_12 dem_12 1
 f_11_12 bal_11 -1
 f_11_12 tq_12_1 -3
 f_11_12 tq_12_2 -3
 f_11_12 tq_12_3 -3.25
 f_11_12 tq_12_4 -0.75
 f_11_12 tq_12_5 -6
 f_11_12 tq_12_6 -5
 f_11_13 cost -25
 f_11_13 dem_13 1
 f_11_13 bal_11 -1
 f_11_13 tq_13_1 -4
 f_11_13 tq_13_2 -2.5
 f_11_13 tq_13_3 -3.5
 f_11_13 tq_13_4 -1.5
 f_11_13 tq_13_5 -7
 f_11_13 tq_13_6 -6
 f_11_14 cost -15
 f_11_14 dem_14 1
 f_11_14 bal_11 -1
 f_11_14 tq_14_1 -1.5
 f_11_14 tq_14_2 -5.5
 f_11_14 tq_14_3 -3.9
 f_11_14 tq_14_4 -0.8
 f_11_14 tq_14_5 -7
 f_11_14 tq_14_6 -6
 f_11_15 cost -10
 f_11_15 dem_15 1
 f_11_15 bal_11 -1
 f_11_15 tq_15_1 -3
 f_11_15 tq_15_2 -4
 f_11_15 tq_15_3 -4
 f_11_15 tq_15_4 -1.8
 f_11_15 tq_15_5 -6
 f_11_15 tq_15_6 -6
 p_9_1 cost 0
 p_9_2 cost 0
 p_9_3 cost 0
 p_9_4 cost 0
 p_9_5 cost 0
 p_9_6 cost 0
 p_10_1 cost 0
 p_10_2 cost 0
 p_10_3 cost 0
 p_10_4 cost 0
 p_10_5 cost 0
 p_10_6 cost 0
 p_11_1 cost 0
 p_11_2 cost 0
 p_11_3 cost 0
 p_11_4 cost 0
 p_11_5 cost 0
 p_11_6 cost 0
RHS
 rhs src_1 75
 rhs src_2 75
 rhs src_3 75
 rhs src_4 75
 rhs src_5 75
 rhs src_6 75
 rhs src_7 75
 rhs src_8 75
 rhs dem_12 10
 rhs dem_13 25
 rhs dem_14 30
 rhs dem_15 10
 rhs cap_9 75
 rhs cap_10 75
 rhs cap_11 75
BOUNDS
 UP bnd f_1_9 75
 UP bnd f_2_9 75
 UP bnd f_3_10 75
 UP bnd f_4_10 75
 UP bnd f_5_10 75
 UP bnd f_6_11 75
 UP bnd f_7_11 75
 UP bnd f_8_11 75
 UP bnd f_9_12 10
 UP bnd f_9_13 25
 UP bnd f_9_14 30
 UP bnd f_9_15 10
 UP bnd f_10_12 10
 UP bnd f_10_13 25
 UP bnd f_10_14 30
 UP bnd f_10_15 10
 UP bnd f_11_12 10
 UP bnd f_11_13 25
 UP bnd f_11_14 30
 UP bnd f_11_15 10
 LO bnd p_9_1 1
 UP bnd p_9_1 4
 LO bnd p_9_2 1
 UP bnd p_9_2 6
 LO bnd p_9_3 3
 UP bnd p_9_3 4
 LO bnd p_9_4 0.5
 UP bnd p_9_4 2
 LO bnd p_9_5 4
 UP bnd p_9_5 5
 LO bnd p_9_6 4
 UP bnd p_9_6 9
 LO bnd p_10_1 1
 UP bnd p_10_1 4
 LO bnd p_10_2 2.7
 UP bnd p_10_2 5.5
 LO bnd p_10_3 3
 UP bnd p_10_3 4
 LO bnd p_10_4 0.9
 UP bnd p_10_4 1.6
 LO bnd p_10_5 3
 UP bnd p_10_5 7
 LO bnd p_10_6 4
 UP bnd p_10_6 10
 LO bnd p_11_1 1.8
 UP bnd p_11_1 5
 LO bnd p_11_2 1
 UP bnd p_11_2 3
 LO bnd p_11_3 1.7
 UP bnd p_11_3 4
 LO bnd p_11_4 1
 UP bnd p_11_4 3.5
 LO bnd p_11_5 3.5
 UP bnd p_11_5 6.1
 LO bnd p_11_6 2
 UP bnd p_11_6 3
QCMATRIX pq_9_1
 f_9_12 p_9_1 -0.5
 p_9_1 f_9_12 -0.5
 f_9_13 p_9_1 -0.5
 p_9_1 f_9_13 -0.5
 f_9_14 p_9_1 -0.5
 p_9_1 f_9_14 -0.5
 f_9_15 p_9_1 -0.5
 p_9_1 f_9_15 -0.5
QCMATRIX pq_9_2
 f_9_12 p_9_2 -0.5
 p_9_2 f_9_12 -0.5
 f_9_13 p_9_2 -0.5
 p_9_2 f_9_13 -0.5
 f_9_14 p_9_2 -0.5
 p_9_2 f_9_14 -0.5
 f_9_15 p_9_2 -0.5
 p_9_2 f_9_15 -0.5
QCMATRIX pq_9_3
 f_9_12 p_9_3 -0.5
 p_9_3 f_9_12 -0.5
 f_9_13 p_9_3 -0.5
 p_9_3 f_9_13 -0.5
 f_9_14 p_9_3 -0.5
 p_9_3 f_9_14 -0.5
 f_9_15 p_9_3 -0.5
 p_9_3 f_9_15 -0.5
QCMATRIX pq_9_4
 f_9_12 p_9_4 -0.5
 p_9_4 f_9_12 -0.5
 f_9_13 p_9_4 -0.5
 p_9_4 f_9_13 -0.5
 f_9_14 p_9_4 -0.5
 p_9_4 f_9_14 -0.5
 f_9_15 p_9_4 -0.5
 p_9_4 f_9_15 -0.5
QCMATRIX pq_9_5
 f_9_12 p_9_5 -0.5
 p_9_5 f_9_12 -0.5
 f_9_13 p_9_5 -0.5
 p_9_5 f_9_13 -0.5
 f_9_14 p_9_5 -0.5
 p_9_5 f_9_14 -0.5
 f_9_15 p_9_5 -0.5
 p_9_5 f_9_15 -0.5
QCMATRIX pq_9_6
 f_9_12 p_9_6 -0.5
 p_9_6 f_9_12 -0.5
 f_9_13 p_9_6 -0.5
 p_9_6 f_9_13 -0.5
 f_9_14 p_9_6 -0.5
 p_9_6 f_9_14 -0.5
 f_9_15 p_9_6 -0.5
 p_9_6 f_9_15 -0.5
QCMATRIX pq_10_1
 f_10_12 p_10_1 -0.5
 p_10_1 f_10_12 -0.5
 f_10_13 p_10_1 -0.5
 p_10_1 f_10_13 -0.5
 f_10_14 p_10_1 -0.5
 p_10_1 f_10_14 -0.5
 f_10_15 p_10_1 -0.5
 p_10_1 f_10_15 -0.5
QCMATRIX pq_10_2
 f_10_12 p_10_2 -0.5
 p_10_2 f_10_12 -0.5
 f_10_13 p_10_2 -0.5
 p_10_2 f_10_13 -0.5
 f_10_14 p_10_2 -0.5
 p_10_2 f_10_14 -0.5
 f_10_15 p_10_2 -0.5
 p_10_2 f_10_15 -0.5
QCMATRIX pq_10_3
 f_10_12 p_10_3 -0.5
 p_10_3 f_10_12 -0.5
 f_10_13 p_10_3 -0.5
 p_10_3 f_10_13 -0.5
 f_10_14 p_10_3 -0.5
 p_10_3 f_10_14 -0.5
 f_10_15 p_10_3 -0.5
 p_10_3 f_10_15 -0.5
QCMATRIX pq_10_4
 f_10_12 p_10_4 -0.5
 p_10_4 f_10_12 -0.5
 f_10_13 p_10_4 -0.5
 p_10_4 f_10_13 -0.5
 f_10_14 p_10_4 -0.5
 p_10_4 f_10_14 -0.5
 f_10_15 p_10_4 -0.5
 p_10_4 f_10_15 -0.5
QCMATRIX pq_10_5
 f_10_12 p_10_5 -0.5
 p_10_5 f_10_12 -0.5
 f_10_13 p_10_5 -0.5
 p_10_5 f_10_13 -0.5
 f_10_14 p_10_5 -0.5
 p_10_5 f_10_14 -0.5
 f_10_15 p_10_5 -0.5
 p_10_5 f_10_15 -0.5
QCMATRIX pq_10_6
 f_10_12 p_10_6 -0.5
 p_10_6 f_10_12 -0.5
 f_10_13 p_10_6 -0.5
 p_10_6 f_10_13 -0.5
 f_10_14 p_10_6 -0.5
 p_10_6 f_10_14 -0.5
 f_10_15 p_10_6 -0.5
 p_10_6 f_10_15 -0.5
QCMATRIX pq_11_1
 f_11_12 p_11_1 -0.5
 p_11_1 f_11_12 -0.5
 f_11_13 p_11_1 -0.5
 p_11_1 f_11_13 -0.5
 f_11_14 p_11_1 -0.5
 p_11_1 f_11_14 -0.5
 f_11_15 p_11_1 -0.5
 p_11_1 f_11_15 -0.5
QCMATRIX pq_11_2
 f_11_12 p_11_2 -0.5
 p_11_2 f_11_12 -0.5
 f_11_13 p_11_2 -0.5
 p_11_2 f_11_13 -0.5
 f_11_14 p_11_2 -0.5
 p_11_2 f_11_14 -0.5
 f_11_15 p_11_2 -0.5
 p_11_2 f_11_15 -0.5
QCMATRIX pq_11_3
 f_11_12 p_11_3 -0.5
 p_11_3 f_11_12 -0.5
 f_11_13 p_11_3 -0.5
 p_11_3 f_11_13 -0.5
 f_11_14 p_11_3 -0.5
 p_11_3 f_11_14 -0.5
 f_11_15 p_11_3 -0.5
 p_11_3 f_11_15 -0.5
QCMATRIX pq_11_4
 f_11_12 p_11_4 -0.5
 p_11_4 f_11_12 -0.5
 f_11_13 p_11_4 -0.5
 p_11_4 f_11_13 -0.5
 f_11_14 p_11_4 -0.5
 p_11_4 f_11_14 -0.5
 f_11_15 p_11_4 -0.5
 p_11_4 f_11_15 -0.5
QCMATRIX pq_11_5
 f_11_12 p_11_5 -0.5
 p_11_5 f_11_12 -0.5
 f_11_13 p_11_5 -0.5
 p_11_5 f_11_13 -0.5
 f_11_14 p_11_5 -0.5
 p_11_5 f_11_14 -0.5
 f_11_15 p_11_5 -0.5
 p_11_5 f_11_15 -0.5
QCMATRIX pq_11_6
 f_11_12 p_11_6 -0.5
 p_11_6 f_11_12 -0.5
 f_11_13 p_11_6 -0.5
 p_11_6 f_11_13 -0.5
 f_11_14 p_11_6 -0.5
 p_11_6 f_11_14 -0.5
 f_11_15 p_11_6 -0.5
 p_11_6 f_11_15 -0.5
QCMATRIX tq_12_1
 f_9_12 p_9_1 0.5
 p_9_1 f_9_12 0.5
 f_10_12 p_10_1 0.5
 p_10_1 f_10_12 0.5
 f_11_12 p_11_1 0.5
 p_11_1 f_11_12 0.5
QCMATRIX tq_12_2
 f_9_12 p_9_2 0.5
 p_9_2 f_9_12 0.5
 f_10_12 p_10_2 0.5
 p_10_2 f_10_12 0.5
 f_11_12 p_11_2 0.5
 p_11_2 f_11_12 0.5
QCMATRIX tq_12_3
 f_9_12 p_9_3 0.5
 p_9_3 f_9_12 0.5
 f_10_12 p_10_3 0.5
 p_10_3 f_10_12 0.5
 f_11_12 p_11_3 0.5
 p_11_3 f_11_12 0.5
QCMATRIX tq_12_4
 f_9_12 p_9_4 0.5
 p_9_4 f_9_12 0.5
 f_10_12 p_10_4 0.5
 p_10_4 f_10_12 0.5
 f_11_12 p_11_4 0.5
 p_11_4 f_11_12 0.5
QCMATRIX tq_12_5
 f_9_12 p_9_5 0.5
 p_9_5 f_9_12 0.5
 f_10_12 p_10_5 0.5
 p_10_5 f_10_12 0.5
 f_11_12 p_11_5 0.5
 p_11_5 f_11_12 0.5
QCMATRIX tq_12_6
 f_9_12 p_9_6 0.5
 p_9_6 f_9_12 0.5
 f_10_12 p_10_6 0.5
 p_10_6 f_10_12 0.5
 f_11_12 p_11_6 0.5
 p_11_6 f_11_12 0.5
QCMATRIX tq_13_1
 f_9_13 p_9_1 0.5
 p_9_1 f_9_13 0.5
 f_10_13 p_10_1 0.5
 p_10_1 f_10_13 0.5
 f_11_13 p_11_1 0.5
 p_11_1 f_11_13 0.5
QCMATRIX tq_13_2
 f_9_13 p_9_2 0.5
 p_9_2 f_9_13 0.5
 f_10_13 p_10_2 0.5
 p_10_2 f_10_13 0.5
 f_11_13 p_11_2 0.5
 p_11_2 f_11_13 0.5
QCMATRIX tq_13_3
 f_9_13 p_9_3 0.5
 p_9_3 f_9_13 0.5
 f_10_13 p_10_3 0.5
 p_10_3 f_10_13 0.5
 f_11_13 p_11_3 0.5
 p_11_3 f_11_13 0.5
QCMATRIX tq_13_4
 f_9_13 p_9_4 0.5
 p_9_4 f_9_13 0.5
 f_10_13 p_10_4 0.5
 p_10_4 f_10_13 0.5
 f_11_13 p_11_4 0.5
 p_11_4 f_11_13 0.5
QCMATRIX tq_13_5
 f_9_13 p_9_5 0.5
 p_9_5 f_9_13 0.5
 f_10_13 p_10_5 0.5
 p_10_5 f_10_13 0.5
 f_11_13 p_11_5 0.5
 p_11_5 f_11_13 0.5
QCMATRIX tq_13_6
 f_9_13 p_9_6 0.5
 p_9_6 f_9_13 0.5
 f_10_13 p_10_6 0.5
 p_10_6 f_10_13 0.5
 f_11_13 p_11_6 0.5
 p_11_6 f_11_13 0.5
QCMATRIX tq_14_1
 f_9_14 p_9_1 0.5
 p_9_1 f_9_14 0.5
 f_10_14 p_10_1 0.5
 p_10_1 f_10_14 0.5
 f_11_14 p_11_1 0.5
 p_11_1 f_11_14 0.5
QCMATRIX tq_14_2
 f_9_14 p_9_2 0.5
 p_9_2 f_9_14 0.5
 f_10_14 p_10_2 0.5
 p_10_2 f_10_14 0.5
 f_11_14 p_11_2 0.5
 p_11_2 f_11_14 0.5
QCMATRIX tq_14_3
 f_9_14 p_9_3 0.5
 p_9_3 f_9_14 0.5
 f_10_14 p_10_3 0.5
 p_10_3 f_10_14 0.5
 f_11_14 p_11_3 0.5
 p_11_3 f_11_14 0.5
QCMATRIX tq_14_4
 f_9_14 p_9_4 0.5
 p_9_4 f_9_14 0.5
 f_10_14 p_10_4 0.5
 p_10_4 f_10_14 0.5
 f_11_14 p_11_4 0.5
 p_11_4 f_11_14 0.5
QCMATRIX tq_14_5
 f_9_14 p_9_5 0.5
 p_9_5 f_9_14 0.5
 f_10_14 p_10_5 0.5
 p_10_5 f_10_14 0.5
 f_11_14 p_11_5 0.5
 p_11_5 f_11_14 0.5
QCMATRIX tq_14_6
 f_9_14 p_9_6 0.5
 p_9_6 f_9_14 0.5
 f_10_14 p_10_6 0.5
 p_10_6 f_10_14 0.5
 f_11_14 p_11_6 0.5
 p_11_6 f_11_14 0.5
QCMATRIX tq_15_1
 f_9_15 p_9_1 0.5
 p_9_1 f_9_15 0.5
 f_10_15 p_10_1 0.5
 p_10_1 f_10_15 0.5
 f_11_15 p_11_1 0.5
 p_11_1 f_11_15 0.5
QCMATRIX tq_15_2
 f_9_15 p_9_2 0.5
 p_9_2 f_9_15 0.5
 f_10_15 p_10_2 0.5
 p_10_2 f_10_15 0.5
 f_11_15 p_11_2 0.5
 p_11_2 f_11_15 0.5
QCMATRIX tq_15_3
 f_9_15 p_9_3 0.5
 p_9_3 f_9_15 0.5
 f_10_15 p_10_3 0.5
 p_10_3 f_10_15 0.5
 f_11_15 p_11_3 0.5
 p_11_3 f_11_15 0.5
QCMATRIX tq_15_4
 f_9_15 p_9_4 0.5
 p_9_4 f_9_15 0.5
 f_10_15 p_10_4 0.5
 p_10_4 f_10_15 0.5
 f_11_15 p_11_4 0.5
 p_11_4 f_11_15 0.5
QCMATRIX tq_15_5
 f_9_15 p_9_5 0.5
 p_9_5 f_9_15 0.5
 f_10_15 p_10_5 0.5
 p_10_5 f_10_15 0.5
 f_11_15 p_11_5 0.5
 p_11_5 f_11_15 0.5
QCMATRIX tq_15_6
 f_9_15 p_9_6 0.5
 p_9_6 f_9_15 0.5
 f_10_15 p_10_6 0.5
 p_10_6 f_10_15 0.5
 f_11_15 p_11_6 0.5
 p_11_6 f_11_15 0.5
ENDATA
