* SANKHYA pooling instance adhya3, Q-formulation (#516).
* GENERATED by bench/runners/pooling_models.py from data/pooling/instances/adhya3.json; do not edit.
* Data: Alfaki and Haugland, standard pooling instance Adhya3.gms
* (sha256 e38683722a9b03e796e03867b5db3ed796f3df1bd0a38085281c5df2a98ddd13).
* Source paper and published optimum: data/pooling/reference.json.
* Minimize total arc cost. Quadratic rows use QCMATRIX (full symmetric, no 1/2).
*
* Q-formulation (Ben-Tal, Eiger and Gershovitz 1994), path flows as columns
NAME adhya3_q
ROWS
 N cost
 L src_1
 L src_2
 L src_3
 L src_4
 L src_5
 L src_6
 L src_7
 L src_8
 L dem_12
 L dem_13
 L dem_14
 L dem_15
 E sumq_9
 L cap_9
 E sumq_10
 L cap_10
 E sumq_11
 L cap_11
 L tq_12_1
 L tq_12_2
 L tq_12_3
 L tq_12_4
 L tq_12_5
 L tq_12_6
 L tq_13_1
 L tq_13_2
 L tq_13_3
 L tq_13_4
 L tq_13_5
 L tq_13_6
 L tq_14_1
 L tq_14_2
 L tq_14_3
 L tq_14_4
 L tq_14_5
 L tq_14_6
 L tq_15_1
 L tq_15_2
 L tq_15_3
 L tq_15_4
 L tq_15_5
 L tq_15_6
 E path_1_9_12
 E path_1_9_13
 E path_1_9_14
 E path_1_9_15
 E path_2_9_12
 E path_2_9_13
 E path_2_9_14
 E path_2_9_15
 E path_3_10_12
 E path_3_10_13
 E path_3_10_14
 E path_3_10_15
 E path_4_10_12
 E path_4_10_13
 E path_4_10_14
 E path_4_10_15
 E path_5_10_12
 E path_5_10_13
 E path_5_10_14
 E path_5_10_15
 E path_6_11_12
 E path_6_11_13
 E path_6_11_14
 E path_6_11_15
 E path_7_11_12
 E path_7_11_13
 E path_7_11_14
 E path_7_11_15
 E path_8_11_12
 E path_8_11_13
 E path_8_11_14
 E path_8_11_15
COLUMNS
 q_1_9 sumq_9 1
 q_2_9 sumq_9 1
 q_3_10 sumq_10 1
 q_4_10 sumq_10 1
 q_5_10 sumq_10 1
 q_6_11 sumq_11 1
 q_7_11 sumq_11 1
 q_8_11 sumq_11 1
 f_9_12 cost -16
 f_9_12 dem_12 1
 f_9_12 cap_9 1
 f_9_12 tq_12_1 -3
 f_9_12 tq_12_2 -3
 f_9_12 tq_12_3 -3.25
 f_9_12 tq_12_4 -0.75
 f_9_12 tq_12_5 -6
 f_9_12 tq_12_6 -5
 f_9_13 cost -25
 f_9_13 dem_13 1
 f_9_13 cap_9 1
 f_9_13 tq_13_1 -4
 f_9_13 tq_13_2 -2.5
 f_9_13 tq_13_3 -3.5
 f_9_13 tq_13_4 -1.5
 f_9_13 tq_13_5 -7
 f_9_13 tq_13_6 -6
 f_9_14 cost -15
 f_9_14 dem_14 1
 f_9_14 cap_9 1
 f_9_14 tq_14_1 -1.5
 f_9_14 tq_14_2 -5.5
 f_9_14 tq_14_3 -3.9
 f_9_14 tq_14_4 -0.8
 f_9_14 tq_14_5 -7
 f_9_14 tq_14_6 -6
 f_9_15 cost -10
 f_9_15 dem_15 1
 f_9_15 cap_9 1
 f_9_15 tq_15_1 -3
 f_9_15 tq_15_2 -4
 f_9_15 tq_15_3 -4
 f_9_15 tq_15_4 -1.8
 f_9_15 tq_15_5 -6
 f_9_15 tq_15_6 -6
 f_10_12 cost -16
 f_10_12 dem_12 1
 f_10_12 cap_10 1
 f_10_12 tq_12_1 -3
 f_10_12 tq_12_2 -3
 f_10_12 tq_12_3 -3.25
 f_10_12 tq_12_4 -0.75
 f_10_12 tq_12_5 -6
 f_10_12 tq_12_6 -5
 f_10_13 cost -25
 f_10_13 dem_13 1
 f_10_13 cap_10 1
 f_10_13 tq_13_1 -4
 f_10_13 tq_13_2 -2.5
 f_10_13 tq_13_3 -3.5
 f_10_13 tq_13_4 -1.5
 f_10_13 tq_13_5 -7
 f_10_13 tq_13_6 -6
 f_10_14 cost -15
 f_10_14 dem_14 1
 f_10_14 cap_10 1
 f_10_14 tq_14_1 -1.5
 f_10_14 tq_14_2 -5.5
 f_10_14 tq_14_3 -3.9
 f_10_14 tq_14_4 -0.8
 f_10_14 tq_14_5 -7
 f_10_14 tq_14_6 -6
 f_10_15 cost -10
 f_10_15 dem_15 1
 f_10_15 cap_10 1
 f_10_15 tq_15_1 -3
 f_10_15 tq_15_2 -4
 f_10_15 tq_15_3 -4
 f_10_15 tq_15_4 -1.8
 f_10_15 tq_15_5 -6
 f_10_15 tq_15_6 -6
 f_11_12 cost -16
 f_11_12 dem_12 1
 f_11_12 cap_11 1
 f_11_12 tq_12_1 -3
 f_11_12 tq_12_2 -3
 f_11_12 tq_12_3 -3.25
 f_11_12 tq_12_4 -0.75
 f_11_12 tq_12_5 -6
 f_11_12 tq_12_6 -5
 f_11_13 cost -25
 f_11_13 dem_13 1
 f_11_13 cap_11 1
 f_11_13 tq_13_1 -4
 f_11_13 tq_13_2 -2.5
 f_11_13 tq_13_3 -3.5
 f_11_13 tq_13_4 -1.5
 f_11_13 tq_13_5 -7
 f_11_13 tq_13_6 -6
 f_11_14 cost -15
 f_11_14 dem_14 1
 f_11_14 cap_11 1
 f_11_14 tq_14_1 -1.5
 f_11_14 tq_14_2 -5.5
 f_11_14 tq_14_3 -3.9
 f_11_14 tq_14_4 -0.8
 f_11_14 tq_14_5 -7
 f_11_14 tq_14_6 -6
 f_11_15 cost -10
 f_11_15 dem_15 1
 f_11_15 cap_11 1
 f_11_15 tq_15_1 -3
 f_11_15 tq_15_2 -4
 f_11_15 tq_15_3 -4
 f_11_15 tq_15_4 -1.8
 f_11_15 tq_15_5 -6
 f_11_15 tq_15_6 -6
 v_1_9_12 cost 7
 v_1_9_12 src_1 1
 v_1_9_12 tq_12_1 1
 v_1_9_12 tq_12_2 6
 v_1_9_12 tq_12_3 4
 v_1_9_12 tq_12_4 0.5
 v_1_9_12 tq_12_5 5
 v_1_9_12 tq_12_6 9
 v_1_9_12 path_1_9_12 1
 v_1_9_13 cost 7
 v_1_9_13 src_1 1
 v_1_9_13 tq_13_1 1
 v_1_9_13 tq_13_2 6
 v_1_9_13 tq_13_3 4
 v_1_9_13 tq_13_4 0.5
 v_1_9_13 tq_13_5 5
 v_1_9_13 tq_13_6 9
 v_1_9_13 path_1_9_13 1
 v_1_9_14 cost 7
 v_1_9_14 src_1 1
 v_1_9_14 tq_14_1 1
 v_1_9_14 tq_14_2 6
 v_1_9_14 tq_14_3 4
 v_1_9_14 tq_14_4 0.5
 v_1_9_14 tq_14_5 5
 v_1_9_14 tq_14_6 9
 v_1_9_14 path_1_9_14 1
 v_1_9_15 cost 7
 v_1_9_15 src_1 1
 v_1_9_15 tq_15_1 1
 v_1_9_15 tq_15_2 6
 v_1_9_15 tq_15_3 4
 v_1_9_15 tq_15_4 0.5
 v_1_9_15 tq_15_5 5
 v_1_9_15 tq_15_6 9
 v_1_9_15 path_1_9_15 1
 v_2_9_12 cost 3
 v_2_9_12 src_2 1
 v_2_9_12 tq_12_1 4
 v_2_9_12 tq_12_2 1
 v_2_9_12 tq_12_3 3
 v_2_9_12 tq_12_4 2
 v_2_9_12 tq_12_5 4
 v_2_9_12 tq_12_6 4
 v_2_9_12 path_2_9_12 1
 v_2_9_13 cost 3
 v_2_9_13 src_2 1
 v_2_9_13 tq_13_1 4
 v_2_9_13 tq_13_2 1
 v_2_9_13 tq_13_3 3
 v_2_9_13 tq_13_4 2
 v_2_9_13 tq_13_5 4
 v_2_9_13 tq_13_6 4
 v_2_9_13 path_2_9_13 1
 v_2_9_14 cost 3
 v_2_9_14 src_2 1
 v_2_9_14 tq_14_1 4
 v_2_9_14 tq_14_2 1
 v_2_9_14 tq_14_3 3
 v_2_9_14 tq_14_4 2
 v_2_9_14 tq_14_5 4
 v_2_9_14 tq_14_6 4
 v_2_9_14 path_2_9_14 1
 v_2_9_15 cost 3
 v_2_9_15 src_2 1
 v_2_9_15 tq_15_1 4
 v_2_9_15 tq_15_2 1
 v_2_9_15 tq_15_3 3
 v_2_9_15 tq_15_4 2
 v_2_9_15 tq_15_5 4
 v_2_9_15 tq_15_6 4
 v_2_9_15 path_2_9_15 1
 v_3_10_12 cost 2
 v_3_10_12 src_3 1
 v_3_10_12 tq_12_1 4
 v_3_10_12 tq_12_2 5.5
 v_3_10_12 tq_12_3 3
 v_3_10_12 tq_12_4 0.9
 v_3_10_12 tq_12_5 7
 v_3_10_12 tq_12_6 10
 v_3_10_12 path_3_10_12 1
 v_3_10_13 cost 2
 v_3_10_13 src_3 1
 v_3_10_13 tq_13_1 4
 v_3_10_13 tq_13_2 5.5
 v_3_10_13 tq_13_3 3
 v_3_10_13 tq_13_4 0.9
 v_3_10_13 tq_13_5 7
 v_3_10_13 tq_13_6 10
 v_3_10_13 path_3_10_13 1
 v_3_10_14 cost 2
 v_3_10_14 src_3 1
 v_3_10_14 tq_14_1 4
 v_3_10_14 tq_14_2 5.5
 v_3_10_14 tq_14_3 3
 v_3_10_14 tq_14_4 0.9
 v_3_10_14 tq_14_5 7
 v_3_10_14 tq_14_6 10
 v_3_10_14 path_3_10_14 1
 v_3_10_15 cost 2
 v_3_10_15 src_3 1
 v_3_10_15 tq_15_1 4
 v_3_10_15 tq_15_2 5.5
 v_3_10_15 tq_15_3 3
 v_3_10_15 tq_15_4 0.9
 v_3_10_15 tq_15_5 7
 v_3_10_15 tq_15_6 10
 v_3_10_15 path_3_10_15 1
 v_4_10_12 cost 10
 v_4_10_12 src_4 1
 v_4_10_12 tq_12_1 3
 v_4_10_12 tq_12_2 3
 v_4_10_12 tq_12_3 3
 v_4_10_12 tq_12_4 1
 v_4_10_12 tq_12_5 3
 v_4_10_12 tq_12_6 4
 v_4_10_12 path_4_10_12 1
 v_4_10_13 cost 10
 v_4_10_13 src_4 1
 v_4_10_13 tq_13_1 3
 v_4_10_13 tq_13_2 3
 v_4_10_13 tq_13_3 3
 v_4_10_13 tq_13_4 1
 v_4_10_13 tq_13_5 3
 v_4_10_13 tq_13_6 4
 v_4_10_13 path_4_10_13 1
 v_4_10_14 cost 10
 v_4_10_14 src_4 1
 v_4_10_14 tq_14_1 3
 v_4_10_14 tq_14_2 3
 v_4_10_14 tq_14_3 3
 v_4_10_14 tq_14_4 1
 v_4_10_14 tq_14_5 3
 v_4_10_14 tq_14_6 4
 v_4_10_14 path_4_10_14 1
 v_4_10_15 cost 10
 v_4_10_15 src_4 1
 v_4_10_15 tq_15_1 3
 v_4_10_15 tq_15_2 3
 v_4_10_15 tq_15_3 3
 v_4_10_15 tq_15_4 1
 v_4_10_15 tq_15_5 3
 v_4_10_15 tq_15_6 4
 v_4_10_15 path_4_10_15 1
 v_5_10_12 cost 5
 v_5_10_12 src_5 1
 v_5_10_12 tq_12_1 1
 v_5_10_12 tq_12_2 2.7
 v_5_10_12 tq_12_3 4
 v_5_10_12 tq_12_4 1.6
 v_5_10_12 tq_12_5 3
 v_5_10_12 tq_12_6 7
 v_5_10_12 path_5_10_12 1
 v_5_10_13 cost 5
 v_5_10_13 src_5 1
 v_5_10_13 tq_13_1 1
 v_5_10_13 tq_13_2 2.7
 v_5_10_13 tq_13_3 4
 v_5_10_13 tq_13_4 1.6
 v_5_10_13 tq_13_5 3
 v_5_10_13 tq_13_6 7
 v_5_10_13 path_5_10_13 1
 v_5_10_14 cost 5
 v_5_10_14 src_5 1
 v_5_10_14 tq_14_1 1
 v_5_10_14 tq_14_2 2.7
 v_5_10_14 tq_14_3 4
 v_5_10_14 tq_14_4 1.6
 v_5_10_14 tq_14_5 3
 v_5_10_14 tq_14_6 7
 v_5_10_14 path_5_10_14 1
 v_5_10_15 cost 5
 v_5_10_15 src_5 1
 v_5_10_15 tq_15_1 1
 v_5_10_15 tq_15_2 2.7
 v_5_10_15 tq_15_3 4
 v_5_10_15 tq_15_4 1.6
 v_5_10_15 tq_15_5 3
 v_5_10_15 tq_15_6 7
 v_5_10_15 path_5_10_15 1
 v_6_11_12 cost 5
 v_6_11_12 src_6 1
 v_6_11_12 tq_12_1 1.8
 v_6_11_12 tq_12_2 2.7
 v_6_11_12 tq_12_3 4
 v_6_11_12 tq_12_4 3.5
 v_6_11_12 tq_12_5 6.1
 v_6_11_12 tq_12_6 3
 v_6_11_12 path_6_11_12 1
 v_6_11_13 cost 5
 v_6_11_13 src_6 1
 v_6_11_13 tq_13_1 1.8
 v_6_11_13 tq_13_2 2.7
 v_6_11_13 tq_13_3 4
 v_6_11_13 tq_13_4 3.5
 v_6_11_13 tq_13_5 6.1
 v_6_11_13 tq_13_6 3
 v_6_11_13 path_6_11_13 1
 v_6_11_14 cost 5
 v_6_11_14 src_6 1
 v_6_11_14 tq_14_1 1.8
 v_6_11_14 tq_14_2 2.7
 v_6_11_14 tq_14_3 4
 v_6_11_14 tq_14_4 3.5
 v_6_11_14 tq_14_5 6.1
 v_6_11_14 tq_14_6 3
 v_6_11_14 path_6_11_14 1
 v_6_11_15 cost 5
 v_6_11_15 src_6 1
 v_6_11_15 tq_15_1 1.8
 v_6_11_15 tq_15_2 2.7
 v_6_11_15 tq_15_3 4
 v_6_11_15 tq_15_4 3.5
 v_6_11_15 tq_15_5 6.1
 v_6_11_15 tq_15_6 3
 v_6_11_15 path_6_11_15 1
 v_7_11_12 cost 9
 v_7_11_12 src_7 1
 v_7_11_12 tq_12_1 5
 v_7_11_12 tq_12_2 1
 v_7_11_12 tq_12_3 1.7
 v_7_11_12 tq_12_4 2.9
 v_7_11_12 tq_12_5 3.5
 v_7_11_12 tq_12_6 2.9
 v_7_11_12 path_7_11_12 1
 v_7_11_13 cost 9
 v_7_11_13 src_7 1
 v_7_11_13 tq_13_1 5
 v_7_11_13 tq_13_2 1
 v_7_11_13 tq_13_3 1.7
 v_7_11_13 tq_13_4 2.9
 v_7_11_13 tq_13_5 3.5
 v_7_11_13 tq_13_6 2.9
 v_7_11_13 path_7_11_13 1
 v_7_11_14 cost 9
 v_7_11_14 src_7 1
 v_7_11_14 tq_14_1 5
 v_7_11_14 tq_14_2 1
 v_7_11_14 tq_14_3 1.7
 v_7_11_14 tq_14_4 2.9
 v_7_11_14 tq_14_5 3.5
 v_7_11_14 tq_14_6 2.9
 v_7_11_14 path_7_11_14 1
 v_7_11_15 cost 9
 v_7_11_15 src_7 1
 v_7_11_15 tq_15_1 5
 v_7_11_15 tq_15_2 1
 v_7_11_15 tq_15_3 1.7
 v_7_11_15 tq_15_4 2.9
 v_7_11_15 tq_15_5 3.5
 v_7_11_15 tq_15_6 2.9
 v_7_11_15 path_7_11_15 1
 v_8_11_12 cost 11
 v_8_11_12 src_8 1
 v_8_11_12 tq_12_1 3
 v_8_11_12 tq_12_2 3
 v_8_11_12 tq_12_3 3
 v_8_11_12 tq_12_4 1
 v_8_11_12 tq_12_5 5
 v_8_11_12 tq_12_6 2
 v_8_11_12 path_8_11_12 1
 v_8_11_13 cost 11
 v_8_11_13 src_8 1
 v_8_11_13 tq_13_1 3
 v_8_11_13 tq_13_2 3
 v_8_11_13 tq_13_3 3
 v_8_11_13 tq_13_4 1
 v_8_11_13 tq_13_5 5
 v_8_11_13 tq_13_6 2
 v_8_11_13 path_8_11_13 1
 v_8_11_14 cost 11
 v_8_11_14 src_8 1
 v_8_11_14 tq_14_1 3
 v_8_11_14 tq_14_2 3
 v_8_11_14 tq_14_3 3
 v_8_11_14 tq_14_4 1
 v_8_11_14 tq_14_5 5
 v_8_11_14 tq_14_6 2
 v_8_11_14 path_8_11_14 1
 v_8_11_15 cost 11
 v_8_11_15 src_8 1
 v_8_11_15 tq_15_1 3
 v_8_11_15 tq_15_2 3
 v_8_11_15 tq_15_3 3
 v_8_11_15 tq_15_4 1
 v_8_11_15 tq_15_5 5
 v_8_11_15 tq_15_6 2
 v_8_11_15 path_8_11_15 1
RHS
 rhs src_1 75
 rhs src_2 75
 rhs src_3 75
 rhs src_4 75
 rhs src_5 75
 rhs src_6 75
 rhs src_7 75
 rhs src_8 75
 rhs dem_12 10
 rhs dem_13 25
 rhs dem_14 30
 rhs dem_15 10
 rhs sumq_9 1
 rhs cap_9 75
 rhs sumq_10 1
 rhs cap_10 75
 rhs sumq_11 1
 rhs cap_11 75
BOUNDS
 UP bnd q_1_9 1
 UP bnd q_2_9 1
 UP bnd q_3_10 1
 UP bnd q_4_10 1
 UP bnd q_5_10 1
 UP bnd q_6_11 1
 UP bnd q_7_11 1
 UP bnd q_8_11 1
 UP bnd f_9_12 10
 UP bnd f_9_13 25
 UP bnd f_9_14 30
 UP bnd f_9_15 10
 UP bnd f_10_12 10
 UP bnd f_10_13 25
 UP bnd f_10_14 30
 UP bnd f_10_15 10
 UP bnd f_11_12 10
 UP bnd f_11_13 25
 UP bnd f_11_14 30
 UP bnd f_11_15 10
 UP bnd v_1_9_12 10
 UP bnd v_1_9_13 25
 UP bnd v_1_9_14 30
 UP bnd v_1_9_15 10
 UP bnd v_2_9_12 10
 UP bnd v_2_9_13 25
 UP bnd v_2_9_14 30
 UP bnd v_2_9_15 10
 UP bnd v_3_10_12 10
 UP bnd v_3_10_13 25
 UP bnd v_3_10_14 30
 UP bnd v_3_10_15 10
 UP bnd v_4_10_12 10
 UP bnd v_4_10_13 25
 UP bnd v_4_10_14 30
 UP bnd v_4_10_15 10
 UP bnd v_5_10_12 10
 UP bnd v_5_10_13 25
 UP bnd v_5_10_14 30
 UP bnd v_5_10_15 10
 UP bnd v_6_11_12 10
 UP bnd v_6_11_13 25
 UP bnd v_6_11_14 30
 UP bnd v_6_11_15 10
 UP bnd v_7_11_12 10
 UP bnd v_7_11_13 25
 UP bnd v_7_11_14 30
 UP bnd v_7_11_15 10
 UP bnd v_8_11_12 10
 UP bnd v_8_11_13 25
 UP bnd v_8_11_14 30
 UP bnd v_8_11_15 10
QCMATRIX path_1_9_12
 f_9_12 q_1_9 -0.5
 q_1_9 f_9_12 -0.5
QCMATRIX path_1_9_13
 f_9_13 q_1_9 -0.5
 q_1_9 f_9_13 -0.5
QCMATRIX path_1_9_14
 f_9_14 q_1_9 -0.5
 q_1_9 f_9_14 -0.5
QCMATRIX path_1_9_15
 f_9_15 q_1_9 -0.5
 q_1_9 f_9_15 -0.5
QCMATRIX path_2_9_12
 f_9_12 q_2_9 -0.5
 q_2_9 f_9_12 -0.5
QCMATRIX path_2_9_13
 f_9_13 q_2_9 -0.5
 q_2_9 f_9_13 -0.5
QCMATRIX path_2_9_14
 f_9_14 q_2_9 -0.5
 q_2_9 f_9_14 -0.5
QCMATRIX path_2_9_15
 f_9_15 q_2_9 -0.5
 q_2_9 f_9_15 -0.5
QCMATRIX path_3_10_12
 f_10_12 q_3_10 -0.5
 q_3_10 f_10_12 -0.5
QCMATRIX path_3_10_13
 f_10_13 q_3_10 -0.5
 q_3_10 f_10_13 -0.5
QCMATRIX path_3_10_14
 f_10_14 q_3_10 -0.5
 q_3_10 f_10_14 -0.5
QCMATRIX path_3_10_15
 f_10_15 q_3_10 -0.5
 q_3_10 f_10_15 -0.5
QCMATRIX path_4_10_12
 f_10_12 q_4_10 -0.5
 q_4_10 f_10_12 -0.5
QCMATRIX path_4_10_13
 f_10_13 q_4_10 -0.5
 q_4_10 f_10_13 -0.5
QCMATRIX path_4_10_14
 f_10_14 q_4_10 -0.5
 q_4_10 f_10_14 -0.5
QCMATRIX path_4_10_15
 f_10_15 q_4_10 -0.5
 q_4_10 f_10_15 -0.5
QCMATRIX path_5_10_12
 f_10_12 q_5_10 -0.5
 q_5_10 f_10_12 -0.5
QCMATRIX path_5_10_13
 f_10_13 q_5_10 -0.5
 q_5_10 f_10_13 -0.5
QCMATRIX path_5_10_14
 f_10_14 q_5_10 -0.5
 q_5_10 f_10_14 -0.5
QCMATRIX path_5_10_15
 f_10_15 q_5_10 -0.5
 q_5_10 f_10_15 -0.5
QCMATRIX path_6_11_12
 f_11_12 q_6_11 -0.5
 q_6_11 f_11_12 -0.5
QCMATRIX path_6_11_13
 f_11_13 q_6_11 -0.5
 q_6_11 f_11_13 -0.5
QCMATRIX path_6_11_14
 f_11_14 q_6_11 -0.5
 q_6_11 f_11_14 -0.5
QCMATRIX path_6_11_15
 f_11_15 q_6_11 -0.5
 q_6_11 f_11_15 -0.5
QCMATRIX path_7_11_12
 f_11_12 q_7_11 -0.5
 q_7_11 f_11_12 -0.5
QCMATRIX path_7_11_13
 f_11_13 q_7_11 -0.5
 q_7_11 f_11_13 -0.5
QCMATRIX path_7_11_14
 f_11_14 q_7_11 -0.5
 q_7_11 f_11_14 -0.5
QCMATRIX path_7_11_15
 f_11_15 q_7_11 -0.5
 q_7_11 f_11_15 -0.5
QCMATRIX path_8_11_12
 f_11_12 q_8_11 -0.5
 q_8_11 f_11_12 -0.5
QCMATRIX path_8_11_13
 f_11_13 q_8_11 -0.5
 q_8_11 f_11_13 -0.5
QCMATRIX path_8_11_14
 f_11_14 q_8_11 -0.5
 q_8_11 f_11_14 -0.5
QCMATRIX path_8_11_15
 f_11_15 q_8_11 -0.5
 q_8_11 f_11_15 -0.5
ENDATA
