* SANKHYA pooling instance foulds4, Q-formulation (#516).
* GENERATED by bench/runners/pooling_models.py from data/pooling/instances/foulds4.json; do not edit.
* Data: Alfaki and Haugland, standard pooling instance Foulds4.gms
* (sha256 76ddbb450810d8923ef9e9ec33e56add694466d1b94d334bb782faee80c93ae7).
* Source paper and published optimum: data/pooling/reference.json.
* Minimize total arc cost. Quadratic rows use QCMATRIX (full symmetric, no 1/2).
*
* Q-formulation (Ben-Tal, Eiger and Gershovitz 1994), path flows as columns
NAME foulds4_q
ROWS
 N cost
 L src_1
 L src_2
 L src_3
 L src_4
 L src_5
 L src_6
 L src_7
 L src_8
 L src_9
 L src_10
 L src_11
 L dem_20
 L dem_21
 L dem_22
 L dem_23
 L dem_24
 L dem_25
 L dem_26
 L dem_27
 L dem_28
 L dem_29
 L dem_30
 L dem_31
 L dem_32
 L dem_33
 L dem_34
 L dem_35
 E sumq_12
 L cap_12
 E sumq_13
 L cap_13
 E sumq_14
 L cap_14
 E sumq_15
 L cap_15
 E sumq_16
 L cap_16
 E sumq_17
 L cap_17
 E sumq_18
 L cap_18
 E sumq_19
 L cap_19
 L tq_20_1
 L tq_21_1
 L tq_22_1
 L tq_23_1
 L tq_24_1
 L tq_25_1
 L tq_26_1
 L tq_27_1
 L tq_28_1
 L tq_29_1
 L tq_30_1
 L tq_31_1
 L tq_32_1
 L tq_33_1
 L tq_34_1
 L tq_35_1
 E path_2_12_20
 E path_2_12_21
 E path_2_12_22
 E path_2_12_23
 E path_2_12_24
 E path_2_12_25
 E path_2_12_26
 E path_2_12_27
 E path_2_12_28
 E path_2_12_29
 E path_2_12_30
 E path_2_12_31
 E path_2_12_32
 E path_2_12_33
 E path_2_12_34
 E path_2_12_35
 E path_5_12_20
 E path_5_12_21
 E path_5_12_22
 E path_5_12_23
 E path_5_12_24
 E path_5_12_25
 E path_5_12_26
 E path_5_12_27
 E path_5_12_28
 E path_5_12_29
 E path_5_12_30
 E path_5_12_31
 E path_5_12_32
 E path_5_12_33
 E path_5_12_34
 E path_5_12_35
 E path_8_12_20
 E path_8_12_21
 E path_8_12_22
 E path_8_12_23
 E path_8_12_24
 E path_8_12_25
 E path_8_12_26
 E path_8_12_27
 E path_8_12_28
 E path_8_12_29
 E path_8_12_30
 E path_8_12_31
 E path_8_12_32
 E path_8_12_33
 E path_8_12_34
 E path_8_12_35
 E path_11_12_20
 E path_11_12_21
 E path_11_12_22
 E path_11_12_23
 E path_11_12_24
 E path_11_12_25
 E path_11_12_26
 E path_11_12_27
 E path_11_12_28
 E path_11_12_29
 E path_11_12_30
 E path_11_12_31
 E path_11_12_32
 E path_11_12_33
 E path_11_12_34
 E path_11_12_35
 E path_1_13_20
 E path_1_13_21
 E path_1_13_22
 E path_1_13_23
 E path_1_13_24
 E path_1_13_25
 E path_1_13_26
 E path_1_13_27
 E path_1_13_28
 E path_1_13_29
 E path_1_13_30
 E path_1_13_31
 E path_1_13_32
 E path_1_13_33
 E path_1_13_34
 E path_1_13_35
 E path_4_13_20
 E path_4_13_21
 E path_4_13_22
 E path_4_13_23
 E path_4_13_24
 E path_4_13_25
 E path_4_13_26
 E path_4_13_27
 E path_4_13_28
 E path_4_13_29
 E path_4_13_30
 E path_4_13_31
 E path_4_13_32
 E path_4_13_33
 E path_4_13_34
 E path_4_13_35
 E path_7_13_20
 E path_7_13_21
 E path_7_13_22
 E path_7_13_23
 E path_7_13_24
 E path_7_13_25
 E path_7_13_26
 E path_7_13_27
 E path_7_13_28
 E path_7_13_29
 E path_7_13_30
 E path_7_13_31
 E path_7_13_32
 E path_7_13_33
 E path_7_13_34
 E path_7_13_35
 E path_10_13_20
 E path_10_13_21
 E path_10_13_22
 E path_10_13_23
 E path_10_13_24
 E path_10_13_25
 E path_10_13_26
 E path_10_13_27
 E path_10_13_28
 E path_10_13_29
 E path_10_13_30
 E path_10_13_31
 E path_10_13_32
 E path_10_13_33
 E path_10_13_34
 E path_10_13_35
 E path_6_14_20
 E path_6_14_21
 E path_6_14_22
 E path_6_14_23
 E path_6_14_24
 E path_6_14_25
 E path_6_14_26
 E path_6_14_27
 E path_6_14_28
 E path_6_14_29
 E path_6_14_30
 E path_6_14_31
 E path_6_14_32
 E path_6_14_33
 E path_6_14_34
 E path_6_14_35
 E path_7_14_20
 E path_7_14_21
 E path_7_14_22
 E path_7_14_23
 E path_7_14_24
 E path_7_14_25
 E path_7_14_26
 E path_7_14_27
 E path_7_14_28
 E path_7_14_29
 E path_7_14_30
 E path_7_14_31
 E path_7_14_32
 E path_7_14_33
 E path_7_14_34
 E path_7_14_35
 E path_9_14_20
 E path_9_14_21
 E path_9_14_22
 E path_9_14_23
 E path_9_14_24
 E path_9_14_25
 E path_9_14_26
 E path_9_14_27
 E path_9_14_28
 E path_9_14_29
 E path_9_14_30
 E path_9_14_31
 E path_9_14_32
 E path_9_14_33
 E path_9_14_34
 E path_9_14_35
 E path_10_14_20
 E path_10_14_21
 E path_10_14_22
 E path_10_14_23
 E path_10_14_24
 E path_10_14_25
 E path_10_14_26
 E path_10_14_27
 E path_10_14_28
 E path_10_14_29
 E path_10_14_30
 E path_10_14_31
 E path_10_14_32
 E path_10_14_33
 E path_10_14_34
 E path_10_14_35
 E path_5_15_20
 E path_5_15_21
 E path_5_15_22
 E path_5_15_23
 E path_5_15_24
 E path_5_15_25
 E path_5_15_26
 E path_5_15_27
 E path_5_15_28
 E path_5_15_29
 E path_5_15_30
 E path_5_15_31
 E path_5_15_32
 E path_5_15_33
 E path_5_15_34
 E path_5_15_35
 E path_6_15_20
 E path_6_15_21
 E path_6_15_22
 E path_6_15_23
 E path_6_15_24
 E path_6_15_25
 E path_6_15_26
 E path_6_15_27
 E path_6_15_28
 E path_6_15_29
 E path_6_15_30
 E path_6_15_31
 E path_6_15_32
 E path_6_15_33
 E path_6_15_34
 E path_6_15_35
 E path_8_15_20
 E path_8_15_21
 E path_8_15_22
 E path_8_15_23
 E path_8_15_24
 E path_8_15_25
 E path_8_15_26
 E path_8_15_27
 E path_8_15_28
 E path_8_15_29
 E path_8_15_30
 E path_8_15_31
 E path_8_15_32
 E path_8_15_33
 E path_8_15_34
 E path_8_15_35
 E path_9_15_20
 E path_9_15_21
 E path_9_15_22
 E path_9_15_23
 E path_9_15_24
 E path_9_15_25
 E path_9_15_26
 E path_9_15_27
 E path_9_15_28
 E path_9_15_29
 E path_9_15_30
 E path_9_15_31
 E path_9_15_32
 E path_9_15_33
 E path_9_15_34
 E path_9_15_35
 E path_4_16_20
 E path_4_16_21
 E path_4_16_22
 E path_4_16_23
 E path_4_16_24
 E path_4_16_25
 E path_4_16_26
 E path_4_16_27
 E path_4_16_28
 E path_4_16_29
 E path_4_16_30
 E path_4_16_31
 E path_4_16_32
 E path_4_16_33
 E path_4_16_34
 E path_4_16_35
 E path_6_16_20
 E path_6_16_21
 E path_6_16_22
 E path_6_16_23
 E path_6_16_24
 E path_6_16_25
 E path_6_16_26
 E path_6_16_27
 E path_6_16_28
 E path_6_16_29
 E path_6_16_30
 E path_6_16_31
 E path_6_16_32
 E path_6_16_33
 E path_6_16_34
 E path_6_16_35
 E path_7_16_20
 E path_7_16_21
 E path_7_16_22
 E path_7_16_23
 E path_7_16_24
 E path_7_16_25
 E path_7_16_26
 E path_7_16_27
 E path_7_16_28
 E path_7_16_29
 E path_7_16_30
 E path_7_16_31
 E path_7_16_32
 E path_7_16_33
 E path_7_16_34
 E path_7_16_35
 E path_9_16_20
 E path_9_16_21
 E path_9_16_22
 E path_9_16_23
 E path_9_16_24
 E path_9_16_25
 E path_9_16_26
 E path_9_16_27
 E path_9_16_28
 E path_9_16_29
 E path_9_16_30
 E path_9_16_31
 E path_9_16_32
 E path_9_16_33
 E path_9_16_34
 E path_9_16_35
 E path_3_17_20
 E path_3_17_21
 E path_3_17_22
 E path_3_17_23
 E path_3_17_24
 E path_3_17_25
 E path_3_17_26
 E path_3_17_27
 E path_3_17_28
 E path_3_17_29
 E path_3_17_30
 E path_3_17_31
 E path_3_17_32
 E path_3_17_33
 E path_3_17_34
 E path_3_17_35
 E path_5_17_20
 E path_5_17_21
 E path_5_17_22
 E path_5_17_23
 E path_5_17_24
 E path_5_17_25
 E path_5_17_26
 E path_5_17_27
 E path_5_17_28
 E path_5_17_29
 E path_5_17_30
 E path_5_17_31
 E path_5_17_32
 E path_5_17_33
 E path_5_17_34
 E path_5_17_35
 E path_6_17_20
 E path_6_17_21
 E path_6_17_22
 E path_6_17_23
 E path_6_17_24
 E path_6_17_25
 E path_6_17_26
 E path_6_17_27
 E path_6_17_28
 E path_6_17_29
 E path_6_17_30
 E path_6_17_31
 E path_6_17_32
 E path_6_17_33
 E path_6_17_34
 E path_6_17_35
 E path_8_17_20
 E path_8_17_21
 E path_8_17_22
 E path_8_17_23
 E path_8_17_24
 E path_8_17_25
 E path_8_17_26
 E path_8_17_27
 E path_8_17_28
 E path_8_17_29
 E path_8_17_30
 E path_8_17_31
 E path_8_17_32
 E path_8_17_33
 E path_8_17_34
 E path_8_17_35
 E path_3_18_20
 E path_3_18_21
 E path_3_18_22
 E path_3_18_23
 E path_3_18_24
 E path_3_18_25
 E path_3_18_26
 E path_3_18_27
 E path_3_18_28
 E path_3_18_29
 E path_3_18_30
 E path_3_18_31
 E path_3_18_32
 E path_3_18_33
 E path_3_18_34
 E path_3_18_35
 E path_4_18_20
 E path_4_18_21
 E path_4_18_22
 E path_4_18_23
 E path_4_18_24
 E path_4_18_25
 E path_4_18_26
 E path_4_18_27
 E path_4_18_28
 E path_4_18_29
 E path_4_18_30
 E path_4_18_31
 E path_4_18_32
 E path_4_18_33
 E path_4_18_34
 E path_4_18_35
 E path_5_18_20
 E path_5_18_21
 E path_5_18_22
 E path_5_18_23
 E path_5_18_24
 E path_5_18_25
 E path_5_18_26
 E path_5_18_27
 E path_5_18_28
 E path_5_18_29
 E path_5_18_30
 E path_5_18_31
 E path_5_18_32
 E path_5_18_33
 E path_5_18_34
 E path_5_18_35
 E path_8_18_20
 E path_8_18_21
 E path_8_18_22
 E path_8_18_23
 E path_8_18_24
 E path_8_18_25
 E path_8_18_26
 E path_8_18_27
 E path_8_18_28
 E path_8_18_29
 E path_8_18_30
 E path_8_18_31
 E path_8_18_32
 E path_8_18_33
 E path_8_18_34
 E path_8_18_35
 E path_2_19_20
 E path_2_19_21
 E path_2_19_22
 E path_2_19_23
 E path_2_19_24
 E path_2_19_25
 E path_2_19_26
 E path_2_19_27
 E path_2_19_28
 E path_2_19_29
 E path_2_19_30
 E path_2_19_31
 E path_2_19_32
 E path_2_19_33
 E path_2_19_34
 E path_2_19_35
 E path_3_19_20
 E path_3_19_21
 E path_3_19_22
 E path_3_19_23
 E path_3_19_24
 E path_3_19_25
 E path_3_19_26
 E path_3_19_27
 E path_3_19_28
 E path_3_19_29
 E path_3_19_30
 E path_3_19_31
 E path_3_19_32
 E path_3_19_33
 E path_3_19_34
 E path_3_19_35
 E path_4_19_20
 E path_4_19_21
 E path_4_19_22
 E path_4_19_23
 E path_4_19_24
 E path_4_19_25
 E path_4_19_26
 E path_4_19_27
 E path_4_19_28
 E path_4_19_29
 E path_4_19_30
 E path_4_19_31
 E path_4_19_32
 E path_4_19_33
 E path_4_19_34
 E path_4_19_35
 E path_7_19_20
 E path_7_19_21
 E path_7_19_22
 E path_7_19_23
 E path_7_19_24
 E path_7_19_25
 E path_7_19_26
 E path_7_19_27
 E path_7_19_28
 E path_7_19_29
 E path_7_19_30
 E path_7_19_31
 E path_7_19_32
 E path_7_19_33
 E path_7_19_34
 E path_7_19_35
COLUMNS
 q_2_12 sumq_12 1
 q_5_12 sumq_12 1
 q_8_12 sumq_12 1
 q_11_12 sumq_12 1
 q_1_13 sumq_13 1
 q_4_13 sumq_13 1
 q_7_13 sumq_13 1
 q_10_13 sumq_13 1
 q_6_14 sumq_14 1
 q_7_14 sumq_14 1
 q_9_14 sumq_14 1
 q_10_14 sumq_14 1
 q_5_15 sumq_15 1
 q_6_15 sumq_15 1
 q_8_15 sumq_15 1
 q_9_15 sumq_15 1
 q_4_16 sumq_16 1
 q_6_16 sumq_16 1
 q_7_16 sumq_16 1
 q_9_16 sumq_16 1
 q_3_17 sumq_17 1
 q_5_17 sumq_17 1
 q_6_17 sumq_17 1
 q_8_17 sumq_17 1
 q_3_18 sumq_18 1
 q_4_18 sumq_18 1
 q_5_18 sumq_18 1
 q_8_18 sumq_18 1
 q_2_19 sumq_19 1
 q_3_19 sumq_19 1
 q_4_19 sumq_19 1
 q_7_19 sumq_19 1
 f_12_20 cost -20
 f_12_20 dem_20 1
 f_12_20 cap_12 1
 f_12_20 tq_20_1 -1.05
 f_12_21 cost -19.5
 f_12_21 dem_21 1
 f_12_21 cap_12 1
 f_12_21 tq_21_1 -1.1
 f_12_22 cost -19
 f_12_22 dem_22 1
 f_12_22 cap_12 1
 f_12_22 tq_22_1 -1.15
 f_12_23 cost -18.5
 f_12_23 dem_23 1
 f_12_23 cap_12 1
 f_12_23 tq_23_1 -1.2
 f_12_24 cost -18
 f_12_24 dem_24 1
 f_12_24 cap_12 1
 f_12_24 tq_24_1 -1.25
 f_12_25 cost -17.5
 f_12_25 dem_25 1
 f_12_25 cap_12 1
 f_12_25 tq_25_1 -1.3
 f_12_26 cost -17
 f_12_26 dem_26 1
 f_12_26 cap_12 1
 f_12_26 tq_26_1 -1.35
 f_12_27 cost -16.5
 f_12_27 dem_27 1
 f_12_27 cap_12 1
 f_12_27 tq_27_1 -1.4
 f_12_28 cost -16
 f_12_28 dem_28 1
 f_12_28 cap_12 1
 f_12_28 tq_28_1 -1.45
 f_12_29 cost -15.5
 f_12_29 dem_29 1
 f_12_29 cap_12 1
 f_12_29 tq_29_1 -1.5
 f_12_30 cost -15
 f_12_30 dem_30 1
 f_12_30 cap_12 1
 f_12_30 tq_30_1 -1.55
 f_12_31 cost -14.5
 f_12_31 dem_31 1
 f_12_31 cap_12 1
 f_12_31 tq_31_1 -1.6
 f_12_32 cost -14
 f_12_32 dem_32 1
 f_12_32 cap_12 1
 f_12_32 tq_32_1 -1.65
 f_12_33 cost -13.5
 f_12_33 dem_33 1
 f_12_33 cap_12 1
 f_12_33 tq_33_1 -1.7
 f_12_34 cost -13
 f_12_34 dem_34 1
 f_12_34 cap_12 1
 f_12_34 tq_34_1 -1.75
 f_12_35 cost -12.5
 f_12_35 dem_35 1
 f_12_35 cap_12 1
 f_12_35 tq_35_1 -1.8
 f_13_20 cost -20
 f_13_20 dem_20 1
 f_13_20 cap_13 1
 f_13_20 tq_20_1 -1.05
 f_13_21 cost -19.5
 f_13_21 dem_21 1
 f_13_21 cap_13 1
 f_13_21 tq_21_1 -1.1
 f_13_22 cost -19
 f_13_22 dem_22 1
 f_13_22 cap_13 1
 f_13_22 tq_22_1 -1.15
 f_13_23 cost -18.5
 f_13_23 dem_23 1
 f_13_23 cap_13 1
 f_13_23 tq_23_1 -1.2
 f_13_24 cost -18
 f_13_24 dem_24 1
 f_13_24 cap_13 1
 f_13_24 tq_24_1 -1.25
 f_13_25 cost -17.5
 f_13_25 dem_25 1
 f_13_25 cap_13 1
 f_13_25 tq_25_1 -1.3
 f_13_26 cost -17
 f_13_26 dem_26 1
 f_13_26 cap_13 1
 f_13_26 tq_26_1 -1.35
 f_13_27 cost -16.5
 f_13_27 dem_27 1
 f_13_27 cap_13 1
 f_13_27 tq_27_1 -1.4
 f_13_28 cost -16
 f_13_28 dem_28 1
 f_13_28 cap_13 1
 f_13_28 tq_28_1 -1.45
 f_13_29 cost -15.5
 f_13_29 dem_29 1
 f_13_29 cap_13 1
 f_13_29 tq_29_1 -1.5
 f_13_30 cost -15
 f_13_30 dem_30 1
 f_13_30 cap_13 1
 f_13_30 tq_30_1 -1.55
 f_13_31 cost -14.5
 f_13_31 dem_31 1
 f_13_31 cap_13 1
 f_13_31 tq_31_1 -1.6
 f_13_32 cost -14
 f_13_32 dem_32 1
 f_13_32 cap_13 1
 f_13_32 tq_32_1 -1.65
 f_13_33 cost -13.5
 f_13_33 dem_33 1
 f_13_33 cap_13 1
 f_13_33 tq_33_1 -1.7
 f_13_34 cost -13
 f_13_34 dem_34 1
 f_13_34 cap_13 1
 f_13_34 tq_34_1 -1.75
 f_13_35 cost -12.5
 f_13_35 dem_35 1
 f_13_35 cap_13 1
 f_13_35 tq_35_1 -1.8
 f_14_20 cost -20
 f_14_20 dem_20 1
 f_14_20 cap_14 1
 f_14_20 tq_20_1 -1.05
 f_14_21 cost -19.5
 f_14_21 dem_21 1
 f_14_21 cap_14 1
 f_14_21 tq_21_1 -1.1
 f_14_22 cost -19
 f_14_22 dem_22 1
 f_14_22 cap_14 1
 f_14_22 tq_22_1 -1.15
 f_14_23 cost -18.5
 f_14_23 dem_23 1
 f_14_23 cap_14 1
 f_14_23 tq_23_1 -1.2
 f_14_24 cost -18
 f_14_24 dem_24 1
 f_14_24 cap_14 1
 f_14_24 tq_24_1 -1.25
 f_14_25 cost -17.5
 f_14_25 dem_25 1
 f_14_25 cap_14 1
 f_14_25 tq_25_1 -1.3
 f_14_26 cost -17
 f_14_26 dem_26 1
 f_14_26 cap_14 1
 f_14_26 tq_26_1 -1.35
 f_14_27 cost -16.5
 f_14_27 dem_27 1
 f_14_27 cap_14 1
 f_14_27 tq_27_1 -1.4
 f_14_28 cost -16
 f_14_28 dem_28 1
 f_14_28 cap_14 1
 f_14_28 tq_28_1 -1.45
 f_14_29 cost -15.5
 f_14_29 dem_29 1
 f_14_29 cap_14 1
 f_14_29 tq_29_1 -1.5
 f_14_30 cost -15
 f_14_30 dem_30 1
 f_14_30 cap_14 1
 f_14_30 tq_30_1 -1.55
 f_14_31 cost -14.5
 f_14_31 dem_31 1
 f_14_31 cap_14 1
 f_14_31 tq_31_1 -1.6
 f_14_32 cost -14
 f_14_32 dem_32 1
 f_14_32 cap_14 1
 f_14_32 tq_32_1 -1.65
 f_14_33 cost -13.5
 f_14_33 dem_33 1
 f_14_33 cap_14 1
 f_14_33 tq_33_1 -1.7
 f_14_34 cost -13
 f_14_34 dem_34 1
 f_14_34 cap_14 1
 f_14_34 tq_34_1 -1.75
 f_14_35 cost -12.5
 f_14_35 dem_35 1
 f_14_35 cap_14 1
 f_14_35 tq_35_1 -1.8
 f_15_20 cost -20
 f_15_20 dem_20 1
 f_15_20 cap_15 1
 f_15_20 tq_20_1 -1.05
 f_15_21 cost -19.5
 f_15_21 dem_21 1
 f_15_21 cap_15 1
 f_15_21 tq_21_1 -1.1
 f_15_22 cost -19
 f_15_22 dem_22 1
 f_15_22 cap_15 1
 f_15_22 tq_22_1 -1.15
 f_15_23 cost -18.5
 f_15_23 dem_23 1
 f_15_23 cap_15 1
 f_15_23 tq_23_1 -1.2
 f_15_24 cost -18
 f_15_24 dem_24 1
 f_15_24 cap_15 1
 f_15_24 tq_24_1 -1.25
 f_15_25 cost -17.5
 f_15_25 dem_25 1
 f_15_25 cap_15 1
 f_15_25 tq_25_1 -1.3
 f_15_26 cost -17
 f_15_26 dem_26 1
 f_15_26 cap_15 1
 f_15_26 tq_26_1 -1.35
 f_15_27 cost -16.5
 f_15_27 dem_27 1
 f_15_27 cap_15 1
 f_15_27 tq_27_1 -1.4
 f_15_28 cost -16
 f_15_28 dem_28 1
 f_15_28 cap_15 1
 f_15_28 tq_28_1 -1.45
 f_15_29 cost -15.5
 f_15_29 dem_29 1
 f_15_29 cap_15 1
 f_15_29 tq_29_1 -1.5
 f_15_30 cost -15
 f_15_30 dem_30 1
 f_15_30 cap_15 1
 f_15_30 tq_30_1 -1.55
 f_15_31 cost -14.5
 f_15_31 dem_31 1
 f_15_31 cap_15 1
 f_15_31 tq_31_1 -1.6
 f_15_32 cost -14
 f_15_32 dem_32 1
 f_15_32 cap_15 1
 f_15_32 tq_32_1 -1.65
 f_15_33 cost -13.5
 f_15_33 dem_33 1
 f_15_33 cap_15 1
 f_15_33 tq_33_1 -1.7
 f_15_34 cost -13
 f_15_34 dem_34 1
 f_15_34 cap_15 1
 f_15_34 tq_34_1 -1.75
 f_15_35 cost -12.5
 f_15_35 dem_35 1
 f_15_35 cap_15 1
 f_15_35 tq_35_1 -1.8
 f_16_20 cost -20
 f_16_20 dem_20 1
 f_16_20 cap_16 1
 f_16_20 tq_20_1 -1.05
 f_16_21 cost -19.5
 f_16_21 dem_21 1
 f_16_21 cap_16 1
 f_16_21 tq_21_1 -1.1
 f_16_22 cost -19
 f_16_22 dem_22 1
 f_16_22 cap_16 1
 f_16_22 tq_22_1 -1.15
 f_16_23 cost -18.5
 f_16_23 dem_23 1
 f_16_23 cap_16 1
 f_16_23 tq_23_1 -1.2
 f_16_24 cost -18
 f_16_24 dem_24 1
 f_16_24 cap_16 1
 f_16_24 tq_24_1 -1.25
 f_16_25 cost -17.5
 f_16_25 dem_25 1
 f_16_25 cap_16 1
 f_16_25 tq_25_1 -1.3
 f_16_26 cost -17
 f_16_26 dem_26 1
 f_16_26 cap_16 1
 f_16_26 tq_26_1 -1.35
 f_16_27 cost -16.5
 f_16_27 dem_27 1
 f_16_27 cap_16 1
 f_16_27 tq_27_1 -1.4
 f_16_28 cost -16
 f_16_28 dem_28 1
 f_16_28 cap_16 1
 f_16_28 tq_28_1 -1.45
 f_16_29 cost -15.5
 f_16_29 dem_29 1
 f_16_29 cap_16 1
 f_16_29 tq_29_1 -1.5
 f_16_30 cost -15
 f_16_30 dem_30 1
 f_16_30 cap_16 1
 f_16_30 tq_30_1 -1.55
 f_16_31 cost -14.5
 f_16_31 dem_31 1
 f_16_31 cap_16 1
 f_16_31 tq_31_1 -1.6
 f_16_32 cost -14
 f_16_32 dem_32 1
 f_16_32 cap_16 1
 f_16_32 tq_32_1 -1.65
 f_16_33 cost -13.5
 f_16_33 dem_33 1
 f_16_33 cap_16 1
 f_16_33 tq_33_1 -1.7
 f_16_34 cost -13
 f_16_34 dem_34 1
 f_16_34 cap_16 1
 f_16_34 tq_34_1 -1.75
 f_16_35 cost -12.5
 f_16_35 dem_35 1
 f_16_35 cap_16 1
 f_16_35 tq_35_1 -1.8
 f_17_20 cost -20
 f_17_20 dem_20 1
 f_17_20 cap_17 1
 f_17_20 tq_20_1 -1.05
 f_17_21 cost -19.5
 f_17_21 dem_21 1
 f_17_21 cap_17 1
 f_17_21 tq_21_1 -1.1
 f_17_22 cost -19
 f_17_22 dem_22 1
 f_17_22 cap_17 1
 f_17_22 tq_22_1 -1.15
 f_17_23 cost -18.5
 f_17_23 dem_23 1
 f_17_23 cap_17 1
 f_17_23 tq_23_1 -1.2
 f_17_24 cost -18
 f_17_24 dem_24 1
 f_17_24 cap_17 1
 f_17_24 tq_24_1 -1.25
 f_17_25 cost -17.5
 f_17_25 dem_25 1
 f_17_25 cap_17 1
 f_17_25 tq_25_1 -1.3
 f_17_26 cost -17
 f_17_26 dem_26 1
 f_17_26 cap_17 1
 f_17_26 tq_26_1 -1.35
 f_17_27 cost -16.5
 f_17_27 dem_27 1
 f_17_27 cap_17 1
 f_17_27 tq_27_1 -1.4
 f_17_28 cost -16
 f_17_28 dem_28 1
 f_17_28 cap_17 1
 f_17_28 tq_28_1 -1.45
 f_17_29 cost -15.5
 f_17_29 dem_29 1
 f_17_29 cap_17 1
 f_17_29 tq_29_1 -1.5
 f_17_30 cost -15
 f_17_30 dem_30 1
 f_17_30 cap_17 1
 f_17_30 tq_30_1 -1.55
 f_17_31 cost -14.5
 f_17_31 dem_31 1
 f_17_31 cap_17 1
 f_17_31 tq_31_1 -1.6
 f_17_32 cost -14
 f_17_32 dem_32 1
 f_17_32 cap_17 1
 f_17_32 tq_32_1 -1.65
 f_17_33 cost -13.5
 f_17_33 dem_33 1
 f_17_33 cap_17 1
 f_17_33 tq_33_1 -1.7
 f_17_34 cost -13
 f_17_34 dem_34 1
 f_17_34 cap_17 1
 f_17_34 tq_34_1 -1.75
 f_17_35 cost -12.5
 f_17_35 dem_35 1
 f_17_35 cap_17 1
 f_17_35 tq_35_1 -1.8
 f_18_20 cost -20
 f_18_20 dem_20 1
 f_18_20 cap_18 1
 f_18_20 tq_20_1 -1.05
 f_18_21 cost -19.5
 f_18_21 dem_21 1
 f_18_21 cap_18 1
 f_18_21 tq_21_1 -1.1
 f_18_22 cost -19
 f_18_22 dem_22 1
 f_18_22 cap_18 1
 f_18_22 tq_22_1 -1.15
 f_18_23 cost -18.5
 f_18_23 dem_23 1
 f_18_23 cap_18 1
 f_18_23 tq_23_1 -1.2
 f_18_24 cost -18
 f_18_24 dem_24 1
 f_18_24 cap_18 1
 f_18_24 tq_24_1 -1.25
 f_18_25 cost -17.5
 f_18_25 dem_25 1
 f_18_25 cap_18 1
 f_18_25 tq_25_1 -1.3
 f_18_26 cost -17
 f_18_26 dem_26 1
 f_18_26 cap_18 1
 f_18_26 tq_26_1 -1.35
 f_18_27 cost -16.5
 f_18_27 dem_27 1
 f_18_27 cap_18 1
 f_18_27 tq_27_1 -1.4
 f_18_28 cost -16
 f_18_28 dem_28 1
 f_18_28 cap_18 1
 f_18_28 tq_28_1 -1.45
 f_18_29 cost -15.5
 f_18_29 dem_29 1
 f_18_29 cap_18 1
 f_18_29 tq_29_1 -1.5
 f_18_30 cost -15
 f_18_30 dem_30 1
 f_18_30 cap_18 1
 f_18_30 tq_30_1 -1.55
 f_18_31 cost -14.5
 f_18_31 dem_31 1
 f_18_31 cap_18 1
 f_18_31 tq_31_1 -1.6
 f_18_32 cost -14
 f_18_32 dem_32 1
 f_18_32 cap_18 1
 f_18_32 tq_32_1 -1.65
 f_18_33 cost -13.5
 f_18_33 dem_33 1
 f_18_33 cap_18 1
 f_18_33 tq_33_1 -1.7
 f_18_34 cost -13
 f_18_34 dem_34 1
 f_18_34 cap_18 1
 f_18_34 tq_34_1 -1.75
 f_18_35 cost -12.5
 f_18_35 dem_35 1
 f_18_35 cap_18 1
 f_18_35 tq_35_1 -1.8
 f_19_20 cost -20
 f_19_20 dem_20 1
 f_19_20 cap_19 1
 f_19_20 tq_20_1 -1.05
 f_19_21 cost -19.5
 f_19_21 dem_21 1
 f_19_21 cap_19 1
 f_19_21 tq_21_1 -1.1
 f_19_22 cost -19
 f_19_22 dem_22 1
 f_19_22 cap_19 1
 f_19_22 tq_22_1 -1.15
 f_19_23 cost -18.5
 f_19_23 dem_23 1
 f_19_23 cap_19 1
 f_19_23 tq_23_1 -1.2
 f_19_24 cost -18
 f_19_24 dem_24 1
 f_19_24 cap_19 1
 f_19_24 tq_24_1 -1.25
 f_19_25 cost -17.5
 f_19_25 dem_25 1
 f_19_25 cap_19 1
 f_19_25 tq_25_1 -1.3
 f_19_26 cost -17
 f_19_26 dem_26 1
 f_19_26 cap_19 1
 f_19_26 tq_26_1 -1.35
 f_19_27 cost -16.5
 f_19_27 dem_27 1
 f_19_27 cap_19 1
 f_19_27 tq_27_1 -1.4
 f_19_28 cost -16
 f_19_28 dem_28 1
 f_19_28 cap_19 1
 f_19_28 tq_28_1 -1.45
 f_19_29 cost -15.5
 f_19_29 dem_29 1
 f_19_29 cap_19 1
 f_19_29 tq_29_1 -1.5
 f_19_30 cost -15
 f_19_30 dem_30 1
 f_19_30 cap_19 1
 f_19_30 tq_30_1 -1.55
 f_19_31 cost -14.5
 f_19_31 dem_31 1
 f_19_31 cap_19 1
 f_19_31 tq_31_1 -1.6
 f_19_32 cost -14
 f_19_32 dem_32 1
 f_19_32 cap_19 1
 f_19_32 tq_32_1 -1.65
 f_19_33 cost -13.5
 f_19_33 dem_33 1
 f_19_33 cap_19 1
 f_19_33 tq_33_1 -1.7
 f_19_34 cost -13
 f_19_34 dem_34 1
 f_19_34 cap_19 1
 f_19_34 tq_34_1 -1.75
 f_19_35 cost -12.5
 f_19_35 dem_35 1
 f_19_35 cap_19 1
 f_19_35 tq_35_1 -1.8
 v_2_12_20 cost 11
 v_2_12_20 src_2 1
 v_2_12_20 tq_20_1 1.9
 v_2_12_20 path_2_12_20 1
 v_2_12_21 cost 11
 v_2_12_21 src_2 1
 v_2_12_21 tq_21_1 1.9
 v_2_12_21 path_2_12_21 1
 v_2_12_22 cost 11
 v_2_12_22 src_2 1
 v_2_12_22 tq_22_1 1.9
 v_2_12_22 path_2_12_22 1
 v_2_12_23 cost 11
 v_2_12_23 src_2 1
 v_2_12_23 tq_23_1 1.9
 v_2_12_23 path_2_12_23 1
 v_2_12_24 cost 11
 v_2_12_24 src_2 1
 v_2_12_24 tq_24_1 1.9
 v_2_12_24 path_2_12_24 1
 v_2_12_25 cost 11
 v_2_12_25 src_2 1
 v_2_12_25 tq_25_1 1.9
 v_2_12_25 path_2_12_25 1
 v_2_12_26 cost 11
 v_2_12_26 src_2 1
 v_2_12_26 tq_26_1 1.9
 v_2_12_26 path_2_12_26 1
 v_2_12_27 cost 11
 v_2_12_27 src_2 1
 v_2_12_27 tq_27_1 1.9
 v_2_12_27 path_2_12_27 1
 v_2_12_28 cost 11
 v_2_12_28 src_2 1
 v_2_12_28 tq_28_1 1.9
 v_2_12_28 path_2_12_28 1
 v_2_12_29 cost 11
 v_2_12_29 src_2 1
 v_2_12_29 tq_29_1 1.9
 v_2_12_29 path_2_12_29 1
 v_2_12_30 cost 11
 v_2_12_30 src_2 1
 v_2_12_30 tq_30_1 1.9
 v_2_12_30 path_2_12_30 1
 v_2_12_31 cost 11
 v_2_12_31 src_2 1
 v_2_12_31 tq_31_1 1.9
 v_2_12_31 path_2_12_31 1
 v_2_12_32 cost 11
 v_2_12_32 src_2 1
 v_2_12_32 tq_32_1 1.9
 v_2_12_32 path_2_12_32 1
 v_2_12_33 cost 11
 v_2_12_33 src_2 1
 v_2_12_33 tq_33_1 1.9
 v_2_12_33 path_2_12_33 1
 v_2_12_34 cost 11
 v_2_12_34 src_2 1
 v_2_12_34 tq_34_1 1.9
 v_2_12_34 path_2_12_34 1
 v_2_12_35 cost 11
 v_2_12_35 src_2 1
 v_2_12_35 tq_35_1 1.9
 v_2_12_35 path_2_12_35 1
 v_5_12_20 cost 14
 v_5_12_20 src_5 1
 v_5_12_20 tq_20_1 1.6
 v_5_12_20 path_5_12_20 1
 v_5_12_21 cost 14
 v_5_12_21 src_5 1
 v_5_12_21 tq_21_1 1.6
 v_5_12_21 path_5_12_21 1
 v_5_12_22 cost 14
 v_5_12_22 src_5 1
 v_5_12_22 tq_22_1 1.6
 v_5_12_22 path_5_12_22 1
 v_5_12_23 cost 14
 v_5_12_23 src_5 1
 v_5_12_23 tq_23_1 1.6
 v_5_12_23 path_5_12_23 1
 v_5_12_24 cost 14
 v_5_12_24 src_5 1
 v_5_12_24 tq_24_1 1.6
 v_5_12_24 path_5_12_24 1
 v_5_12_25 cost 14
 v_5_12_25 src_5 1
 v_5_12_25 tq_25_1 1.6
 v_5_12_25 path_5_12_25 1
 v_5_12_26 cost 14
 v_5_12_26 src_5 1
 v_5_12_26 tq_26_1 1.6
 v_5_12_26 path_5_12_26 1
 v_5_12_27 cost 14
 v_5_12_27 src_5 1
 v_5_12_27 tq_27_1 1.6
 v_5_12_27 path_5_12_27 1
 v_5_12_28 cost 14
 v_5_12_28 src_5 1
 v_5_12_28 tq_28_1 1.6
 v_5_12_28 path_5_12_28 1
 v_5_12_29 cost 14
 v_5_12_29 src_5 1
 v_5_12_29 tq_29_1 1.6
 v_5_12_29 path_5_12_29 1
 v_5_12_30 cost 14
 v_5_12_30 src_5 1
 v_5_12_30 tq_30_1 1.6
 v_5_12_30 path_5_12_30 1
 v_5_12_31 cost 14
 v_5_12_31 src_5 1
 v_5_12_31 tq_31_1 1.6
 v_5_12_31 path_5_12_31 1
 v_5_12_32 cost 14
 v_5_12_32 src_5 1
 v_5_12_32 tq_32_1 1.6
 v_5_12_32 path_5_12_32 1
 v_5_12_33 cost 14
 v_5_12_33 src_5 1
 v_5_12_33 tq_33_1 1.6
 v_5_12_33 path_5_12_33 1
 v_5_12_34 cost 14
 v_5_12_34 src_5 1
 v_5_12_34 tq_34_1 1.6
 v_5_12_34 path_5_12_34 1
 v_5_12_35 cost 14
 v_5_12_35 src_5 1
 v_5_12_35 tq_35_1 1.6
 v_5_12_35 path_5_12_35 1
 v_8_12_20 cost 17
 v_8_12_20 src_8 1
 v_8_12_20 tq_20_1 1.3
 v_8_12_20 path_8_12_20 1
 v_8_12_21 cost 17
 v_8_12_21 src_8 1
 v_8_12_21 tq_21_1 1.3
 v_8_12_21 path_8_12_21 1
 v_8_12_22 cost 17
 v_8_12_22 src_8 1
 v_8_12_22 tq_22_1 1.3
 v_8_12_22 path_8_12_22 1
 v_8_12_23 cost 17
 v_8_12_23 src_8 1
 v_8_12_23 tq_23_1 1.3
 v_8_12_23 path_8_12_23 1
 v_8_12_24 cost 17
 v_8_12_24 src_8 1
 v_8_12_24 tq_24_1 1.3
 v_8_12_24 path_8_12_24 1
 v_8_12_25 cost 17
 v_8_12_25 src_8 1
 v_8_12_25 tq_25_1 1.3
 v_8_12_25 path_8_12_25 1
 v_8_12_26 cost 17
 v_8_12_26 src_8 1
 v_8_12_26 tq_26_1 1.3
 v_8_12_26 path_8_12_26 1
 v_8_12_27 cost 17
 v_8_12_27 src_8 1
 v_8_12_27 tq_27_1 1.3
 v_8_12_27 path_8_12_27 1
 v_8_12_28 cost 17
 v_8_12_28 src_8 1
 v_8_12_28 tq_28_1 1.3
 v_8_12_28 path_8_12_28 1
 v_8_12_29 cost 17
 v_8_12_29 src_8 1
 v_8_12_29 tq_29_1 1.3
 v_8_12_29 path_8_12_29 1
 v_8_12_30 cost 17
 v_8_12_30 src_8 1
 v_8_12_30 tq_30_1 1.3
 v_8_12_30 path_8_12_30 1
 v_8_12_31 cost 17
 v_8_12_31 src_8 1
 v_8_12_31 tq_31_1 1.3
 v_8_12_31 path_8_12_31 1
 v_8_12_32 cost 17
 v_8_12_32 src_8 1
 v_8_12_32 tq_32_1 1.3
 v_8_12_32 path_8_12_32 1
 v_8_12_33 cost 17
 v_8_12_33 src_8 1
 v_8_12_33 tq_33_1 1.3
 v_8_12_33 path_8_12_33 1
 v_8_12_34 cost 17
 v_8_12_34 src_8 1
 v_8_12_34 tq_34_1 1.3
 v_8_12_34 path_8_12_34 1
 v_8_12_35 cost 17
 v_8_12_35 src_8 1
 v_8_12_35 tq_35_1 1.3
 v_8_12_35 path_8_12_35 1
 v_11_12_20 cost 20
 v_11_12_20 src_11 1
 v_11_12_20 tq_20_1 1
 v_11_12_20 path_11_12_20 1
 v_11_12_21 cost 20
 v_11_12_21 src_11 1
 v_11_12_21 tq_21_1 1
 v_11_12_21 path_11_12_21 1
 v_11_12_22 cost 20
 v_11_12_22 src_11 1
 v_11_12_22 tq_22_1 1
 v_11_12_22 path_11_12_22 1
 v_11_12_23 cost 20
 v_11_12_23 src_11 1
 v_11_12_23 tq_23_1 1
 v_11_12_23 path_11_12_23 1
 v_11_12_24 cost 20
 v_11_12_24 src_11 1
 v_11_12_24 tq_24_1 1
 v_11_12_24 path_11_12_24 1
 v_11_12_25 cost 20
 v_11_12_25 src_11 1
 v_11_12_25 tq_25_1 1
 v_11_12_25 path_11_12_25 1
 v_11_12_26 cost 20
 v_11_12_26 src_11 1
 v_11_12_26 tq_26_1 1
 v_11_12_26 path_11_12_26 1
 v_11_12_27 cost 20
 v_11_12_27 src_11 1
 v_11_12_27 tq_27_1 1
 v_11_12_27 path_11_12_27 1
 v_11_12_28 cost 20
 v_11_12_28 src_11 1
 v_11_12_28 tq_28_1 1
 v_11_12_28 path_11_12_28 1
 v_11_12_29 cost 20
 v_11_12_29 src_11 1
 v_11_12_29 tq_29_1 1
 v_11_12_29 path_11_12_29 1
 v_11_12_30 cost 20
 v_11_12_30 src_11 1
 v_11_12_30 tq_30_1 1
 v_11_12_30 path_11_12_30 1
 v_11_12_31 cost 20
 v_11_12_31 src_11 1
 v_11_12_31 tq_31_1 1
 v_11_12_31 path_11_12_31 1
 v_11_12_32 cost 20
 v_11_12_32 src_11 1
 v_11_12_32 tq_32_1 1
 v_11_12_32 path_11_12_32 1
 v_11_12_33 cost 20
 v_11_12_33 src_11 1
 v_11_12_33 tq_33_1 1
 v_11_12_33 path_11_12_33 1
 v_11_12_34 cost 20
 v_11_12_34 src_11 1
 v_11_12_34 tq_34_1 1
 v_11_12_34 path_11_12_34 1
 v_11_12_35 cost 20
 v_11_12_35 src_11 1
 v_11_12_35 tq_35_1 1
 v_11_12_35 path_11_12_35 1
 v_1_13_20 cost 10
 v_1_13_20 src_1 1
 v_1_13_20 tq_20_1 2
 v_1_13_20 path_1_13_20 1
 v_1_13_21 cost 10
 v_1_13_21 src_1 1
 v_1_13_21 tq_21_1 2
 v_1_13_21 path_1_13_21 1
 v_1_13_22 cost 10
 v_1_13_22 src_1 1
 v_1_13_22 tq_22_1 2
 v_1_13_22 path_1_13_22 1
 v_1_13_23 cost 10
 v_1_13_23 src_1 1
 v_1_13_23 tq_23_1 2
 v_1_13_23 path_1_13_23 1
 v_1_13_24 cost 10
 v_1_13_24 src_1 1
 v_1_13_24 tq_24_1 2
 v_1_13_24 path_1_13_24 1
 v_1_13_25 cost 10
 v_1_13_25 src_1 1
 v_1_13_25 tq_25_1 2
 v_1_13_25 path_1_13_25 1
 v_1_13_26 cost 10
 v_1_13_26 src_1 1
 v_1_13_26 tq_26_1 2
 v_1_13_26 path_1_13_26 1
 v_1_13_27 cost 10
 v_1_13_27 src_1 1
 v_1_13_27 tq_27_1 2
 v_1_13_27 path_1_13_27 1
 v_1_13_28 cost 10
 v_1_13_28 src_1 1
 v_1_13_28 tq_28_1 2
 v_1_13_28 path_1_13_28 1
 v_1_13_29 cost 10
 v_1_13_29 src_1 1
 v_1_13_29 tq_29_1 2
 v_1_13_29 path_1_13_29 1
 v_1_13_30 cost 10
 v_1_13_30 src_1 1
 v_1_13_30 tq_30_1 2
 v_1_13_30 path_1_13_30 1
 v_1_13_31 cost 10
 v_1_13_31 src_1 1
 v_1_13_31 tq_31_1 2
 v_1_13_31 path_1_13_31 1
 v_1_13_32 cost 10
 v_1_13_32 src_1 1
 v_1_13_32 tq_32_1 2
 v_1_13_32 path_1_13_32 1
 v_1_13_33 cost 10
 v_1_13_33 src_1 1
 v_1_13_33 tq_33_1 2
 v_1_13_33 path_1_13_33 1
 v_1_13_34 cost 10
 v_1_13_34 src_1 1
 v_1_13_34 tq_34_1 2
 v_1_13_34 path_1_13_34 1
 v_1_13_35 cost 10
 v_1_13_35 src_1 1
 v_1_13_35 tq_35_1 2
 v_1_13_35 path_1_13_35 1
 v_4_13_20 cost 13
 v_4_13_20 src_4 1
 v_4_13_20 tq_20_1 1.7
 v_4_13_20 path_4_13_20 1
 v_4_13_21 cost 13
 v_4_13_21 src_4 1
 v_4_13_21 tq_21_1 1.7
 v_4_13_21 path_4_13_21 1
 v_4_13_22 cost 13
 v_4_13_22 src_4 1
 v_4_13_22 tq_22_1 1.7
 v_4_13_22 path_4_13_22 1
 v_4_13_23 cost 13
 v_4_13_23 src_4 1
 v_4_13_23 tq_23_1 1.7
 v_4_13_23 path_4_13_23 1
 v_4_13_24 cost 13
 v_4_13_24 src_4 1
 v_4_13_24 tq_24_1 1.7
 v_4_13_24 path_4_13_24 1
 v_4_13_25 cost 13
 v_4_13_25 src_4 1
 v_4_13_25 tq_25_1 1.7
 v_4_13_25 path_4_13_25 1
 v_4_13_26 cost 13
 v_4_13_26 src_4 1
 v_4_13_26 tq_26_1 1.7
 v_4_13_26 path_4_13_26 1
 v_4_13_27 cost 13
 v_4_13_27 src_4 1
 v_4_13_27 tq_27_1 1.7
 v_4_13_27 path_4_13_27 1
 v_4_13_28 cost 13
 v_4_13_28 src_4 1
 v_4_13_28 tq_28_1 1.7
 v_4_13_28 path_4_13_28 1
 v_4_13_29 cost 13
 v_4_13_29 src_4 1
 v_4_13_29 tq_29_1 1.7
 v_4_13_29 path_4_13_29 1
 v_4_13_30 cost 13
 v_4_13_30 src_4 1
 v_4_13_30 tq_30_1 1.7
 v_4_13_30 path_4_13_30 1
 v_4_13_31 cost 13
 v_4_13_31 src_4 1
 v_4_13_31 tq_31_1 1.7
 v_4_13_31 path_4_13_31 1
 v_4_13_32 cost 13
 v_4_13_32 src_4 1
 v_4_13_32 tq_32_1 1.7
 v_4_13_32 path_4_13_32 1
 v_4_13_33 cost 13
 v_4_13_33 src_4 1
 v_4_13_33 tq_33_1 1.7
 v_4_13_33 path_4_13_33 1
 v_4_13_34 cost 13
 v_4_13_34 src_4 1
 v_4_13_34 tq_34_1 1.7
 v_4_13_34 path_4_13_34 1
 v_4_13_35 cost 13
 v_4_13_35 src_4 1
 v_4_13_35 tq_35_1 1.7
 v_4_13_35 path_4_13_35 1
 v_7_13_20 cost 16
 v_7_13_20 src_7 1
 v_7_13_20 tq_20_1 1.4
 v_7_13_20 path_7_13_20 1
 v_7_13_21 cost 16
 v_7_13_21 src_7 1
 v_7_13_21 tq_21_1 1.4
 v_7_13_21 path_7_13_21 1
 v_7_13_22 cost 16
 v_7_13_22 src_7 1
 v_7_13_22 tq_22_1 1.4
 v_7_13_22 path_7_13_22 1
 v_7_13_23 cost 16
 v_7_13_23 src_7 1
 v_7_13_23 tq_23_1 1.4
 v_7_13_23 path_7_13_23 1
 v_7_13_24 cost 16
 v_7_13_24 src_7 1
 v_7_13_24 tq_24_1 1.4
 v_7_13_24 path_7_13_24 1
 v_7_13_25 cost 16
 v_7_13_25 src_7 1
 v_7_13_25 tq_25_1 1.4
 v_7_13_25 path_7_13_25 1
 v_7_13_26 cost 16
 v_7_13_26 src_7 1
 v_7_13_26 tq_26_1 1.4
 v_7_13_26 path_7_13_26 1
 v_7_13_27 cost 16
 v_7_13_27 src_7 1
 v_7_13_27 tq_27_1 1.4
 v_7_13_27 path_7_13_27 1
 v_7_13_28 cost 16
 v_7_13_28 src_7 1
 v_7_13_28 tq_28_1 1.4
 v_7_13_28 path_7_13_28 1
 v_7_13_29 cost 16
 v_7_13_29 src_7 1
 v_7_13_29 tq_29_1 1.4
 v_7_13_29 path_7_13_29 1
 v_7_13_30 cost 16
 v_7_13_30 src_7 1
 v_7_13_30 tq_30_1 1.4
 v_7_13_30 path_7_13_30 1
 v_7_13_31 cost 16
 v_7_13_31 src_7 1
 v_7_13_31 tq_31_1 1.4
 v_7_13_31 path_7_13_31 1
 v_7_13_32 cost 16
 v_7_13_32 src_7 1
 v_7_13_32 tq_32_1 1.4
 v_7_13_32 path_7_13_32 1
 v_7_13_33 cost 16
 v_7_13_33 src_7 1
 v_7_13_33 tq_33_1 1.4
 v_7_13_33 path_7_13_33 1
 v_7_13_34 cost 16
 v_7_13_34 src_7 1
 v_7_13_34 tq_34_1 1.4
 v_7_13_34 path_7_13_34 1
 v_7_13_35 cost 16
 v_7_13_35 src_7 1
 v_7_13_35 tq_35_1 1.4
 v_7_13_35 path_7_13_35 1
 v_10_13_20 cost 19
 v_10_13_20 src_10 1
 v_10_13_20 tq_20_1 1.1
 v_10_13_20 path_10_13_20 1
 v_10_13_21 cost 19
 v_10_13_21 src_10 1
 v_10_13_21 tq_21_1 1.1
 v_10_13_21 path_10_13_21 1
 v_10_13_22 cost 19
 v_10_13_22 src_10 1
 v_10_13_22 tq_22_1 1.1
 v_10_13_22 path_10_13_22 1
 v_10_13_23 cost 19
 v_10_13_23 src_10 1
 v_10_13_23 tq_23_1 1.1
 v_10_13_23 path_10_13_23 1
 v_10_13_24 cost 19
 v_10_13_24 src_10 1
 v_10_13_24 tq_24_1 1.1
 v_10_13_24 path_10_13_24 1
 v_10_13_25 cost 19
 v_10_13_25 src_10 1
 v_10_13_25 tq_25_1 1.1
 v_10_13_25 path_10_13_25 1
 v_10_13_26 cost 19
 v_10_13_26 src_10 1
 v_10_13_26 tq_26_1 1.1
 v_10_13_26 path_10_13_26 1
 v_10_13_27 cost 19
 v_10_13_27 src_10 1
 v_10_13_27 tq_27_1 1.1
 v_10_13_27 path_10_13_27 1
 v_10_13_28 cost 19
 v_10_13_28 src_10 1
 v_10_13_28 tq_28_1 1.1
 v_10_13_28 path_10_13_28 1
 v_10_13_29 cost 19
 v_10_13_29 src_10 1
 v_10_13_29 tq_29_1 1.1
 v_10_13_29 path_10_13_29 1
 v_10_13_30 cost 19
 v_10_13_30 src_10 1
 v_10_13_30 tq_30_1 1.1
 v_10_13_30 path_10_13_30 1
 v_10_13_31 cost 19
 v_10_13_31 src_10 1
 v_10_13_31 tq_31_1 1.1
 v_10_13_31 path_10_13_31 1
 v_10_13_32 cost 19
 v_10_13_32 src_10 1
 v_10_13_32 tq_32_1 1.1
 v_10_13_32 path_10_13_32 1
 v_10_13_33 cost 19
 v_10_13_33 src_10 1
 v_10_13_33 tq_33_1 1.1
 v_10_13_33 path_10_13_33 1
 v_10_13_34 cost 19
 v_10_13_34 src_10 1
 v_10_13_34 tq_34_1 1.1
 v_10_13_34 path_10_13_34 1
 v_10_13_35 cost 19
 v_10_13_35 src_10 1
 v_10_13_35 tq_35_1 1.1
 v_10_13_35 path_10_13_35 1
 v_6_14_20 cost 15
 v_6_14_20 src_6 1
 v_6_14_20 tq_20_1 1.5
 v_6_14_20 path_6_14_20 1
 v_6_14_21 cost 15
 v_6_14_21 src_6 1
 v_6_14_21 tq_21_1 1.5
 v_6_14_21 path_6_14_21 1
 v_6_14_22 cost 15
 v_6_14_22 src_6 1
 v_6_14_22 tq_22_1 1.5
 v_6_14_22 path_6_14_22 1
 v_6_14_23 cost 15
 v_6_14_23 src_6 1
 v_6_14_23 tq_23_1 1.5
 v_6_14_23 path_6_14_23 1
 v_6_14_24 cost 15
 v_6_14_24 src_6 1
 v_6_14_24 tq_24_1 1.5
 v_6_14_24 path_6_14_24 1
 v_6_14_25 cost 15
 v_6_14_25 src_6 1
 v_6_14_25 tq_25_1 1.5
 v_6_14_25 path_6_14_25 1
 v_6_14_26 cost 15
 v_6_14_26 src_6 1
 v_6_14_26 tq_26_1 1.5
 v_6_14_26 path_6_14_26 1
 v_6_14_27 cost 15
 v_6_14_27 src_6 1
 v_6_14_27 tq_27_1 1.5
 v_6_14_27 path_6_14_27 1
 v_6_14_28 cost 15
 v_6_14_28 src_6 1
 v_6_14_28 tq_28_1 1.5
 v_6_14_28 path_6_14_28 1
 v_6_14_29 cost 15
 v_6_14_29 src_6 1
 v_6_14_29 tq_29_1 1.5
 v_6_14_29 path_6_14_29 1
 v_6_14_30 cost 15
 v_6_14_30 src_6 1
 v_6_14_30 tq_30_1 1.5
 v_6_14_30 path_6_14_30 1
 v_6_14_31 cost 15
 v_6_14_31 src_6 1
 v_6_14_31 tq_31_1 1.5
 v_6_14_31 path_6_14_31 1
 v_6_14_32 cost 15
 v_6_14_32 src_6 1
 v_6_14_32 tq_32_1 1.5
 v_6_14_32 path_6_14_32 1
 v_6_14_33 cost 15
 v_6_14_33 src_6 1
 v_6_14_33 tq_33_1 1.5
 v_6_14_33 path_6_14_33 1
 v_6_14_34 cost 15
 v_6_14_34 src_6 1
 v_6_14_34 tq_34_1 1.5
 v_6_14_34 path_6_14_34 1
 v_6_14_35 cost 15
 v_6_14_35 src_6 1
 v_6_14_35 tq_35_1 1.5
 v_6_14_35 path_6_14_35 1
 v_7_14_20 cost 16
 v_7_14_20 src_7 1
 v_7_14_20 tq_20_1 1.4
 v_7_14_20 path_7_14_20 1
 v_7_14_21 cost 16
 v_7_14_21 src_7 1
 v_7_14_21 tq_21_1 1.4
 v_7_14_21 path_7_14_21 1
 v_7_14_22 cost 16
 v_7_14_22 src_7 1
 v_7_14_22 tq_22_1 1.4
 v_7_14_22 path_7_14_22 1
 v_7_14_23 cost 16
 v_7_14_23 src_7 1
 v_7_14_23 tq_23_1 1.4
 v_7_14_23 path_7_14_23 1
 v_7_14_24 cost 16
 v_7_14_24 src_7 1
 v_7_14_24 tq_24_1 1.4
 v_7_14_24 path_7_14_24 1
 v_7_14_25 cost 16
 v_7_14_25 src_7 1
 v_7_14_25 tq_25_1 1.4
 v_7_14_25 path_7_14_25 1
 v_7_14_26 cost 16
 v_7_14_26 src_7 1
 v_7_14_26 tq_26_1 1.4
 v_7_14_26 path_7_14_26 1
 v_7_14_27 cost 16
 v_7_14_27 src_7 1
 v_7_14_27 tq_27_1 1.4
 v_7_14_27 path_7_14_27 1
 v_7_14_28 cost 16
 v_7_14_28 src_7 1
 v_7_14_28 tq_28_1 1.4
 v_7_14_28 path_7_14_28 1
 v_7_14_29 cost 16
 v_7_14_29 src_7 1
 v_7_14_29 tq_29_1 1.4
 v_7_14_29 path_7_14_29 1
 v_7_14_30 cost 16
 v_7_14_30 src_7 1
 v_7_14_30 tq_30_1 1.4
 v_7_14_30 path_7_14_30 1
 v_7_14_31 cost 16
 v_7_14_31 src_7 1
 v_7_14_31 tq_31_1 1.4
 v_7_14_31 path_7_14_31 1
 v_7_14_32 cost 16
 v_7_14_32 src_7 1
 v_7_14_32 tq_32_1 1.4
 v_7_14_32 path_7_14_32 1
 v_7_14_33 cost 16
 v_7_14_33 src_7 1
 v_7_14_33 tq_33_1 1.4
 v_7_14_33 path_7_14_33 1
 v_7_14_34 cost 16
 v_7_14_34 src_7 1
 v_7_14_34 tq_34_1 1.4
 v_7_14_34 path_7_14_34 1
 v_7_14_35 cost 16
 v_7_14_35 src_7 1
 v_7_14_35 tq_35_1 1.4
 v_7_14_35 path_7_14_35 1
 v_9_14_20 cost 18
 v_9_14_20 src_9 1
 v_9_14_20 tq_20_1 1.2
 v_9_14_20 path_9_14_20 1
 v_9_14_21 cost 18
 v_9_14_21 src_9 1
 v_9_14_21 tq_21_1 1.2
 v_9_14_21 path_9_14_21 1
 v_9_14_22 cost 18
 v_9_14_22 src_9 1
 v_9_14_22 tq_22_1 1.2
 v_9_14_22 path_9_14_22 1
 v_9_14_23 cost 18
 v_9_14_23 src_9 1
 v_9_14_23 tq_23_1 1.2
 v_9_14_23 path_9_14_23 1
 v_9_14_24 cost 18
 v_9_14_24 src_9 1
 v_9_14_24 tq_24_1 1.2
 v_9_14_24 path_9_14_24 1
 v_9_14_25 cost 18
 v_9_14_25 src_9 1
 v_9_14_25 tq_25_1 1.2
 v_9_14_25 path_9_14_25 1
 v_9_14_26 cost 18
 v_9_14_26 src_9 1
 v_9_14_26 tq_26_1 1.2
 v_9_14_26 path_9_14_26 1
 v_9_14_27 cost 18
 v_9_14_27 src_9 1
 v_9_14_27 tq_27_1 1.2
 v_9_14_27 path_9_14_27 1
 v_9_14_28 cost 18
 v_9_14_28 src_9 1
 v_9_14_28 tq_28_1 1.2
 v_9_14_28 path_9_14_28 1
 v_9_14_29 cost 18
 v_9_14_29 src_9 1
 v_9_14_29 tq_29_1 1.2
 v_9_14_29 path_9_14_29 1
 v_9_14_30 cost 18
 v_9_14_30 src_9 1
 v_9_14_30 tq_30_1 1.2
 v_9_14_30 path_9_14_30 1
 v_9_14_31 cost 18
 v_9_14_31 src_9 1
 v_9_14_31 tq_31_1 1.2
 v_9_14_31 path_9_14_31 1
 v_9_14_32 cost 18
 v_9_14_32 src_9 1
 v_9_14_32 tq_32_1 1.2
 v_9_14_32 path_9_14_32 1
 v_9_14_33 cost 18
 v_9_14_33 src_9 1
 v_9_14_33 tq_33_1 1.2
 v_9_14_33 path_9_14_33 1
 v_9_14_34 cost 18
 v_9_14_34 src_9 1
 v_9_14_34 tq_34_1 1.2
 v_9_14_34 path_9_14_34 1
 v_9_14_35 cost 18
 v_9_14_35 src_9 1
 v_9_14_35 tq_35_1 1.2
 v_9_14_35 path_9_14_35 1
 v_10_14_20 cost 19
 v_10_14_20 src_10 1
 v_10_14_20 tq_20_1 1.1
 v_10_14_20 path_10_14_20 1
 v_10_14_21 cost 19
 v_10_14_21 src_10 1
 v_10_14_21 tq_21_1 1.1
 v_10_14_21 path_10_14_21 1
 v_10_14_22 cost 19
 v_10_14_22 src_10 1
 v_10_14_22 tq_22_1 1.1
 v_10_14_22 path_10_14_22 1
 v_10_14_23 cost 19
 v_10_14_23 src_10 1
 v_10_14_23 tq_23_1 1.1
 v_10_14_23 path_10_14_23 1
 v_10_14_24 cost 19
 v_10_14_24 src_10 1
 v_10_14_24 tq_24_1 1.1
 v_10_14_24 path_10_14_24 1
 v_10_14_25 cost 19
 v_10_14_25 src_10 1
 v_10_14_25 tq_25_1 1.1
 v_10_14_25 path_10_14_25 1
 v_10_14_26 cost 19
 v_10_14_26 src_10 1
 v_10_14_26 tq_26_1 1.1
 v_10_14_26 path_10_14_26 1
 v_10_14_27 cost 19
 v_10_14_27 src_10 1
 v_10_14_27 tq_27_1 1.1
 v_10_14_27 path_10_14_27 1
 v_10_14_28 cost 19
 v_10_14_28 src_10 1
 v_10_14_28 tq_28_1 1.1
 v_10_14_28 path_10_14_28 1
 v_10_14_29 cost 19
 v_10_14_29 src_10 1
 v_10_14_29 tq_29_1 1.1
 v_10_14_29 path_10_14_29 1
 v_10_14_30 cost 19
 v_10_14_30 src_10 1
 v_10_14_30 tq_30_1 1.1
 v_10_14_30 path_10_14_30 1
 v_10_14_31 cost 19
 v_10_14_31 src_10 1
 v_10_14_31 tq_31_1 1.1
 v_10_14_31 path_10_14_31 1
 v_10_14_32 cost 19
 v_10_14_32 src_10 1
 v_10_14_32 tq_32_1 1.1
 v_10_14_32 path_10_14_32 1
 v_10_14_33 cost 19
 v_10_14_33 src_10 1
 v_10_14_33 tq_33_1 1.1
 v_10_14_33 path_10_14_33 1
 v_10_14_34 cost 19
 v_10_14_34 src_10 1
 v_10_14_34 tq_34_1 1.1
 v_10_14_34 path_10_14_34 1
 v_10_14_35 cost 19
 v_10_14_35 src_10 1
 v_10_14_35 tq_35_1 1.1
 v_10_14_35 path_10_14_35 1
 v_5_15_20 cost 14
 v_5_15_20 src_5 1
 v_5_15_20 tq_20_1 1.6
 v_5_15_20 path_5_15_20 1
 v_5_15_21 cost 14
 v_5_15_21 src_5 1
 v_5_15_21 tq_21_1 1.6
 v_5_15_21 path_5_15_21 1
 v_5_15_22 cost 14
 v_5_15_22 src_5 1
 v_5_15_22 tq_22_1 1.6
 v_5_15_22 path_5_15_22 1
 v_5_15_23 cost 14
 v_5_15_23 src_5 1
 v_5_15_23 tq_23_1 1.6
 v_5_15_23 path_5_15_23 1
 v_5_15_24 cost 14
 v_5_15_24 src_5 1
 v_5_15_24 tq_24_1 1.6
 v_5_15_24 path_5_15_24 1
 v_5_15_25 cost 14
 v_5_15_25 src_5 1
 v_5_15_25 tq_25_1 1.6
 v_5_15_25 path_5_15_25 1
 v_5_15_26 cost 14
 v_5_15_26 src_5 1
 v_5_15_26 tq_26_1 1.6
 v_5_15_26 path_5_15_26 1
 v_5_15_27 cost 14
 v_5_15_27 src_5 1
 v_5_15_27 tq_27_1 1.6
 v_5_15_27 path_5_15_27 1
 v_5_15_28 cost 14
 v_5_15_28 src_5 1
 v_5_15_28 tq_28_1 1.6
 v_5_15_28 path_5_15_28 1
 v_5_15_29 cost 14
 v_5_15_29 src_5 1
 v_5_15_29 tq_29_1 1.6
 v_5_15_29 path_5_15_29 1
 v_5_15_30 cost 14
 v_5_15_30 src_5 1
 v_5_15_30 tq_30_1 1.6
 v_5_15_30 path_5_15_30 1
 v_5_15_31 cost 14
 v_5_15_31 src_5 1
 v_5_15_31 tq_31_1 1.6
 v_5_15_31 path_5_15_31 1
 v_5_15_32 cost 14
 v_5_15_32 src_5 1
 v_5_15_32 tq_32_1 1.6
 v_5_15_32 path_5_15_32 1
 v_5_15_33 cost 14
 v_5_15_33 src_5 1
 v_5_15_33 tq_33_1 1.6
 v_5_15_33 path_5_15_33 1
 v_5_15_34 cost 14
 v_5_15_34 src_5 1
 v_5_15_34 tq_34_1 1.6
 v_5_15_34 path_5_15_34 1
 v_5_15_35 cost 14
 v_5_15_35 src_5 1
 v_5_15_35 tq_35_1 1.6
 v_5_15_35 path_5_15_35 1
 v_6_15_20 cost 15
 v_6_15_20 src_6 1
 v_6_15_20 tq_20_1 1.5
 v_6_15_20 path_6_15_20 1
 v_6_15_21 cost 15
 v_6_15_21 src_6 1
 v_6_15_21 tq_21_1 1.5
 v_6_15_21 path_6_15_21 1
 v_6_15_22 cost 15
 v_6_15_22 src_6 1
 v_6_15_22 tq_22_1 1.5
 v_6_15_22 path_6_15_22 1
 v_6_15_23 cost 15
 v_6_15_23 src_6 1
 v_6_15_23 tq_23_1 1.5
 v_6_15_23 path_6_15_23 1
 v_6_15_24 cost 15
 v_6_15_24 src_6 1
 v_6_15_24 tq_24_1 1.5
 v_6_15_24 path_6_15_24 1
 v_6_15_25 cost 15
 v_6_15_25 src_6 1
 v_6_15_25 tq_25_1 1.5
 v_6_15_25 path_6_15_25 1
 v_6_15_26 cost 15
 v_6_15_26 src_6 1
 v_6_15_26 tq_26_1 1.5
 v_6_15_26 path_6_15_26 1
 v_6_15_27 cost 15
 v_6_15_27 src_6 1
 v_6_15_27 tq_27_1 1.5
 v_6_15_27 path_6_15_27 1
 v_6_15_28 cost 15
 v_6_15_28 src_6 1
 v_6_15_28 tq_28_1 1.5
 v_6_15_28 path_6_15_28 1
 v_6_15_29 cost 15
 v_6_15_29 src_6 1
 v_6_15_29 tq_29_1 1.5
 v_6_15_29 path_6_15_29 1
 v_6_15_30 cost 15
 v_6_15_30 src_6 1
 v_6_15_30 tq_30_1 1.5
 v_6_15_30 path_6_15_30 1
 v_6_15_31 cost 15
 v_6_15_31 src_6 1
 v_6_15_31 tq_31_1 1.5
 v_6_15_31 path_6_15_31 1
 v_6_15_32 cost 15
 v_6_15_32 src_6 1
 v_6_15_32 tq_32_1 1.5
 v_6_15_32 path_6_15_32 1
 v_6_15_33 cost 15
 v_6_15_33 src_6 1
 v_6_15_33 tq_33_1 1.5
 v_6_15_33 path_6_15_33 1
 v_6_15_34 cost 15
 v_6_15_34 src_6 1
 v_6_15_34 tq_34_1 1.5
 v_6_15_34 path_6_15_34 1
 v_6_15_35 cost 15
 v_6_15_35 src_6 1
 v_6_15_35 tq_35_1 1.5
 v_6_15_35 path_6_15_35 1
 v_8_15_20 cost 17
 v_8_15_20 src_8 1
 v_8_15_20 tq_20_1 1.3
 v_8_15_20 path_8_15_20 1
 v_8_15_21 cost 17
 v_8_15_21 src_8 1
 v_8_15_21 tq_21_1 1.3
 v_8_15_21 path_8_15_21 1
 v_8_15_22 cost 17
 v_8_15_22 src_8 1
 v_8_15_22 tq_22_1 1.3
 v_8_15_22 path_8_15_22 1
 v_8_15_23 cost 17
 v_8_15_23 src_8 1
 v_8_15_23 tq_23_1 1.3
 v_8_15_23 path_8_15_23 1
 v_8_15_24 cost 17
 v_8_15_24 src_8 1
 v_8_15_24 tq_24_1 1.3
 v_8_15_24 path_8_15_24 1
 v_8_15_25 cost 17
 v_8_15_25 src_8 1
 v_8_15_25 tq_25_1 1.3
 v_8_15_25 path_8_15_25 1
 v_8_15_26 cost 17
 v_8_15_26 src_8 1
 v_8_15_26 tq_26_1 1.3
 v_8_15_26 path_8_15_26 1
 v_8_15_27 cost 17
 v_8_15_27 src_8 1
 v_8_15_27 tq_27_1 1.3
 v_8_15_27 path_8_15_27 1
 v_8_15_28 cost 17
 v_8_15_28 src_8 1
 v_8_15_28 tq_28_1 1.3
 v_8_15_28 path_8_15_28 1
 v_8_15_29 cost 17
 v_8_15_29 src_8 1
 v_8_15_29 tq_29_1 1.3
 v_8_15_29 path_8_15_29 1
 v_8_15_30 cost 17
 v_8_15_30 src_8 1
 v_8_15_30 tq_30_1 1.3
 v_8_15_30 path_8_15_30 1
 v_8_15_31 cost 17
 v_8_15_31 src_8 1
 v_8_15_31 tq_31_1 1.3
 v_8_15_31 path_8_15_31 1
 v_8_15_32 cost 17
 v_8_15_32 src_8 1
 v_8_15_32 tq_32_1 1.3
 v_8_15_32 path_8_15_32 1
 v_8_15_33 cost 17
 v_8_15_33 src_8 1
 v_8_15_33 tq_33_1 1.3
 v_8_15_33 path_8_15_33 1
 v_8_15_34 cost 17
 v_8_15_34 src_8 1
 v_8_15_34 tq_34_1 1.3
 v_8_15_34 path_8_15_34 1
 v_8_15_35 cost 17
 v_8_15_35 src_8 1
 v_8_15_35 tq_35_1 1.3
 v_8_15_35 path_8_15_35 1
 v_9_15_20 cost 18
 v_9_15_20 src_9 1
 v_9_15_20 tq_20_1 1.2
 v_9_15_20 path_9_15_20 1
 v_9_15_21 cost 18
 v_9_15_21 src_9 1
 v_9_15_21 tq_21_1 1.2
 v_9_15_21 path_9_15_21 1
 v_9_15_22 cost 18
 v_9_15_22 src_9 1
 v_9_15_22 tq_22_1 1.2
 v_9_15_22 path_9_15_22 1
 v_9_15_23 cost 18
 v_9_15_23 src_9 1
 v_9_15_23 tq_23_1 1.2
 v_9_15_23 path_9_15_23 1
 v_9_15_24 cost 18
 v_9_15_24 src_9 1
 v_9_15_24 tq_24_1 1.2
 v_9_15_24 path_9_15_24 1
 v_9_15_25 cost 18
 v_9_15_25 src_9 1
 v_9_15_25 tq_25_1 1.2
 v_9_15_25 path_9_15_25 1
 v_9_15_26 cost 18
 v_9_15_26 src_9 1
 v_9_15_26 tq_26_1 1.2
 v_9_15_26 path_9_15_26 1
 v_9_15_27 cost 18
 v_9_15_27 src_9 1
 v_9_15_27 tq_27_1 1.2
 v_9_15_27 path_9_15_27 1
 v_9_15_28 cost 18
 v_9_15_28 src_9 1
 v_9_15_28 tq_28_1 1.2
 v_9_15_28 path_9_15_28 1
 v_9_15_29 cost 18
 v_9_15_29 src_9 1
 v_9_15_29 tq_29_1 1.2
 v_9_15_29 path_9_15_29 1
 v_9_15_30 cost 18
 v_9_15_30 src_9 1
 v_9_15_30 tq_30_1 1.2
 v_9_15_30 path_9_15_30 1
 v_9_15_31 cost 18
 v_9_15_31 src_9 1
 v_9_15_31 tq_31_1 1.2
 v_9_15_31 path_9_15_31 1
 v_9_15_32 cost 18
 v_9_15_32 src_9 1
 v_9_15_32 tq_32_1 1.2
 v_9_15_32 path_9_15_32 1
 v_9_15_33 cost 18
 v_9_15_33 src_9 1
 v_9_15_33 tq_33_1 1.2
 v_9_15_33 path_9_15_33 1
 v_9_15_34 cost 18
 v_9_15_34 src_9 1
 v_9_15_34 tq_34_1 1.2
 v_9_15_34 path_9_15_34 1
 v_9_15_35 cost 18
 v_9_15_35 src_9 1
 v_9_15_35 tq_35_1 1.2
 v_9_15_35 path_9_15_35 1
 v_4_16_20 cost 13
 v_4_16_20 src_4 1
 v_4_16_20 tq_20_1 1.7
 v_4_16_20 path_4_16_20 1
 v_4_16_21 cost 13
 v_4_16_21 src_4 1
 v_4_16_21 tq_21_1 1.7
 v_4_16_21 path_4_16_21 1
 v_4_16_22 cost 13
 v_4_16_22 src_4 1
 v_4_16_22 tq_22_1 1.7
 v_4_16_22 path_4_16_22 1
 v_4_16_23 cost 13
 v_4_16_23 src_4 1
 v_4_16_23 tq_23_1 1.7
 v_4_16_23 path_4_16_23 1
 v_4_16_24 cost 13
 v_4_16_24 src_4 1
 v_4_16_24 tq_24_1 1.7
 v_4_16_24 path_4_16_24 1
 v_4_16_25 cost 13
 v_4_16_25 src_4 1
 v_4_16_25 tq_25_1 1.7
 v_4_16_25 path_4_16_25 1
 v_4_16_26 cost 13
 v_4_16_26 src_4 1
 v_4_16_26 tq_26_1 1.7
 v_4_16_26 path_4_16_26 1
 v_4_16_27 cost 13
 v_4_16_27 src_4 1
 v_4_16_27 tq_27_1 1.7
 v_4_16_27 path_4_16_27 1
 v_4_16_28 cost 13
 v_4_16_28 src_4 1
 v_4_16_28 tq_28_1 1.7
 v_4_16_28 path_4_16_28 1
 v_4_16_29 cost 13
 v_4_16_29 src_4 1
 v_4_16_29 tq_29_1 1.7
 v_4_16_29 path_4_16_29 1
 v_4_16_30 cost 13
 v_4_16_30 src_4 1
 v_4_16_30 tq_30_1 1.7
 v_4_16_30 path_4_16_30 1
 v_4_16_31 cost 13
 v_4_16_31 src_4 1
 v_4_16_31 tq_31_1 1.7
 v_4_16_31 path_4_16_31 1
 v_4_16_32 cost 13
 v_4_16_32 src_4 1
 v_4_16_32 tq_32_1 1.7
 v_4_16_32 path_4_16_32 1
 v_4_16_33 cost 13
 v_4_16_33 src_4 1
 v_4_16_33 tq_33_1 1.7
 v_4_16_33 path_4_16_33 1
 v_4_16_34 cost 13
 v_4_16_34 src_4 1
 v_4_16_34 tq_34_1 1.7
 v_4_16_34 path_4_16_34 1
 v_4_16_35 cost 13
 v_4_16_35 src_4 1
 v_4_16_35 tq_35_1 1.7
 v_4_16_35 path_4_16_35 1
 v_6_16_20 cost 15
 v_6_16_20 src_6 1
 v_6_16_20 tq_20_1 1.5
 v_6_16_20 path_6_16_20 1
 v_6_16_21 cost 15
 v_6_16_21 src_6 1
 v_6_16_21 tq_21_1 1.5
 v_6_16_21 path_6_16_21 1
 v_6_16_22 cost 15
 v_6_16_22 src_6 1
 v_6_16_22 tq_22_1 1.5
 v_6_16_22 path_6_16_22 1
 v_6_16_23 cost 15
 v_6_16_23 src_6 1
 v_6_16_23 tq_23_1 1.5
 v_6_16_23 path_6_16_23 1
 v_6_16_24 cost 15
 v_6_16_24 src_6 1
 v_6_16_24 tq_24_1 1.5
 v_6_16_24 path_6_16_24 1
 v_6_16_25 cost 15
 v_6_16_25 src_6 1
 v_6_16_25 tq_25_1 1.5
 v_6_16_25 path_6_16_25 1
 v_6_16_26 cost 15
 v_6_16_26 src_6 1
 v_6_16_26 tq_26_1 1.5
 v_6_16_26 path_6_16_26 1
 v_6_16_27 cost 15
 v_6_16_27 src_6 1
 v_6_16_27 tq_27_1 1.5
 v_6_16_27 path_6_16_27 1
 v_6_16_28 cost 15
 v_6_16_28 src_6 1
 v_6_16_28 tq_28_1 1.5
 v_6_16_28 path_6_16_28 1
 v_6_16_29 cost 15
 v_6_16_29 src_6 1
 v_6_16_29 tq_29_1 1.5
 v_6_16_29 path_6_16_29 1
 v_6_16_30 cost 15
 v_6_16_30 src_6 1
 v_6_16_30 tq_30_1 1.5
 v_6_16_30 path_6_16_30 1
 v_6_16_31 cost 15
 v_6_16_31 src_6 1
 v_6_16_31 tq_31_1 1.5
 v_6_16_31 path_6_16_31 1
 v_6_16_32 cost 15
 v_6_16_32 src_6 1
 v_6_16_32 tq_32_1 1.5
 v_6_16_32 path_6_16_32 1
 v_6_16_33 cost 15
 v_6_16_33 src_6 1
 v_6_16_33 tq_33_1 1.5
 v_6_16_33 path_6_16_33 1
 v_6_16_34 cost 15
 v_6_16_34 src_6 1
 v_6_16_34 tq_34_1 1.5
 v_6_16_34 path_6_16_34 1
 v_6_16_35 cost 15
 v_6_16_35 src_6 1
 v_6_16_35 tq_35_1 1.5
 v_6_16_35 path_6_16_35 1
 v_7_16_20 cost 16
 v_7_16_20 src_7 1
 v_7_16_20 tq_20_1 1.4
 v_7_16_20 path_7_16_20 1
 v_7_16_21 cost 16
 v_7_16_21 src_7 1
 v_7_16_21 tq_21_1 1.4
 v_7_16_21 path_7_16_21 1
 v_7_16_22 cost 16
 v_7_16_22 src_7 1
 v_7_16_22 tq_22_1 1.4
 v_7_16_22 path_7_16_22 1
 v_7_16_23 cost 16
 v_7_16_23 src_7 1
 v_7_16_23 tq_23_1 1.4
 v_7_16_23 path_7_16_23 1
 v_7_16_24 cost 16
 v_7_16_24 src_7 1
 v_7_16_24 tq_24_1 1.4
 v_7_16_24 path_7_16_24 1
 v_7_16_25 cost 16
 v_7_16_25 src_7 1
 v_7_16_25 tq_25_1 1.4
 v_7_16_25 path_7_16_25 1
 v_7_16_26 cost 16
 v_7_16_26 src_7 1
 v_7_16_26 tq_26_1 1.4
 v_7_16_26 path_7_16_26 1
 v_7_16_27 cost 16
 v_7_16_27 src_7 1
 v_7_16_27 tq_27_1 1.4
 v_7_16_27 path_7_16_27 1
 v_7_16_28 cost 16
 v_7_16_28 src_7 1
 v_7_16_28 tq_28_1 1.4
 v_7_16_28 path_7_16_28 1
 v_7_16_29 cost 16
 v_7_16_29 src_7 1
 v_7_16_29 tq_29_1 1.4
 v_7_16_29 path_7_16_29 1
 v_7_16_30 cost 16
 v_7_16_30 src_7 1
 v_7_16_30 tq_30_1 1.4
 v_7_16_30 path_7_16_30 1
 v_7_16_31 cost 16
 v_7_16_31 src_7 1
 v_7_16_31 tq_31_1 1.4
 v_7_16_31 path_7_16_31 1
 v_7_16_32 cost 16
 v_7_16_32 src_7 1
 v_7_16_32 tq_32_1 1.4
 v_7_16_32 path_7_16_32 1
 v_7_16_33 cost 16
 v_7_16_33 src_7 1
 v_7_16_33 tq_33_1 1.4
 v_7_16_33 path_7_16_33 1
 v_7_16_34 cost 16
 v_7_16_34 src_7 1
 v_7_16_34 tq_34_1 1.4
 v_7_16_34 path_7_16_34 1
 v_7_16_35 cost 16
 v_7_16_35 src_7 1
 v_7_16_35 tq_35_1 1.4
 v_7_16_35 path_7_16_35 1
 v_9_16_20 cost 18
 v_9_16_20 src_9 1
 v_9_16_20 tq_20_1 1.2
 v_9_16_20 path_9_16_20 1
 v_9_16_21 cost 18
 v_9_16_21 src_9 1
 v_9_16_21 tq_21_1 1.2
 v_9_16_21 path_9_16_21 1
 v_9_16_22 cost 18
 v_9_16_22 src_9 1
 v_9_16_22 tq_22_1 1.2
 v_9_16_22 path_9_16_22 1
 v_9_16_23 cost 18
 v_9_16_23 src_9 1
 v_9_16_23 tq_23_1 1.2
 v_9_16_23 path_9_16_23 1
 v_9_16_24 cost 18
 v_9_16_24 src_9 1
 v_9_16_24 tq_24_1 1.2
 v_9_16_24 path_9_16_24 1
 v_9_16_25 cost 18
 v_9_16_25 src_9 1
 v_9_16_25 tq_25_1 1.2
 v_9_16_25 path_9_16_25 1
 v_9_16_26 cost 18
 v_9_16_26 src_9 1
 v_9_16_26 tq_26_1 1.2
 v_9_16_26 path_9_16_26 1
 v_9_16_27 cost 18
 v_9_16_27 src_9 1
 v_9_16_27 tq_27_1 1.2
 v_9_16_27 path_9_16_27 1
 v_9_16_28 cost 18
 v_9_16_28 src_9 1
 v_9_16_28 tq_28_1 1.2
 v_9_16_28 path_9_16_28 1
 v_9_16_29 cost 18
 v_9_16_29 src_9 1
 v_9_16_29 tq_29_1 1.2
 v_9_16_29 path_9_16_29 1
 v_9_16_30 cost 18
 v_9_16_30 src_9 1
 v_9_16_30 tq_30_1 1.2
 v_9_16_30 path_9_16_30 1
 v_9_16_31 cost 18
 v_9_16_31 src_9 1
 v_9_16_31 tq_31_1 1.2
 v_9_16_31 path_9_16_31 1
 v_9_16_32 cost 18
 v_9_16_32 src_9 1
 v_9_16_32 tq_32_1 1.2
 v_9_16_32 path_9_16_32 1
 v_9_16_33 cost 18
 v_9_16_33 src_9 1
 v_9_16_33 tq_33_1 1.2
 v_9_16_33 path_9_16_33 1
 v_9_16_34 cost 18
 v_9_16_34 src_9 1
 v_9_16_34 tq_34_1 1.2
 v_9_16_34 path_9_16_34 1
 v_9_16_35 cost 18
 v_9_16_35 src_9 1
 v_9_16_35 tq_35_1 1.2
 v_9_16_35 path_9_16_35 1
 v_3_17_20 cost 12
 v_3_17_20 src_3 1
 v_3_17_20 tq_20_1 1.8
 v_3_17_20 path_3_17_20 1
 v_3_17_21 cost 12
 v_3_17_21 src_3 1
 v_3_17_21 tq_21_1 1.8
 v_3_17_21 path_3_17_21 1
 v_3_17_22 cost 12
 v_3_17_22 src_3 1
 v_3_17_22 tq_22_1 1.8
 v_3_17_22 path_3_17_22 1
 v_3_17_23 cost 12
 v_3_17_23 src_3 1
 v_3_17_23 tq_23_1 1.8
 v_3_17_23 path_3_17_23 1
 v_3_17_24 cost 12
 v_3_17_24 src_3 1
 v_3_17_24 tq_24_1 1.8
 v_3_17_24 path_3_17_24 1
 v_3_17_25 cost 12
 v_3_17_25 src_3 1
 v_3_17_25 tq_25_1 1.8
 v_3_17_25 path_3_17_25 1
 v_3_17_26 cost 12
 v_3_17_26 src_3 1
 v_3_17_26 tq_26_1 1.8
 v_3_17_26 path_3_17_26 1
 v_3_17_27 cost 12
 v_3_17_27 src_3 1
 v_3_17_27 tq_27_1 1.8
 v_3_17_27 path_3_17_27 1
 v_3_17_28 cost 12
 v_3_17_28 src_3 1
 v_3_17_28 tq_28_1 1.8
 v_3_17_28 path_3_17_28 1
 v_3_17_29 cost 12
 v_3_17_29 src_3 1
 v_3_17_29 tq_29_1 1.8
 v_3_17_29 path_3_17_29 1
 v_3_17_30 cost 12
 v_3_17_30 src_3 1
 v_3_17_30 tq_30_1 1.8
 v_3_17_30 path_3_17_30 1
 v_3_17_31 cost 12
 v_3_17_31 src_3 1
 v_3_17_31 tq_31_1 1.8
 v_3_17_31 path_3_17_31 1
 v_3_17_32 cost 12
 v_3_17_32 src_3 1
 v_3_17_32 tq_32_1 1.8
 v_3_17_32 path_3_17_32 1
 v_3_17_33 cost 12
 v_3_17_33 src_3 1
 v_3_17_33 tq_33_1 1.8
 v_3_17_33 path_3_17_33 1
 v_3_17_34 cost 12
 v_3_17_34 src_3 1
 v_3_17_34 tq_34_1 1.8
 v_3_17_34 path_3_17_34 1
 v_3_17_35 cost 12
 v_3_17_35 src_3 1
 v_3_17_35 tq_35_1 1.8
 v_3_17_35 path_3_17_35 1
 v_5_17_20 cost 14
 v_5_17_20 src_5 1
 v_5_17_20 tq_20_1 1.6
 v_5_17_20 path_5_17_20 1
 v_5_17_21 cost 14
 v_5_17_21 src_5 1
 v_5_17_21 tq_21_1 1.6
 v_5_17_21 path_5_17_21 1
 v_5_17_22 cost 14
 v_5_17_22 src_5 1
 v_5_17_22 tq_22_1 1.6
 v_5_17_22 path_5_17_22 1
 v_5_17_23 cost 14
 v_5_17_23 src_5 1
 v_5_17_23 tq_23_1 1.6
 v_5_17_23 path_5_17_23 1
 v_5_17_24 cost 14
 v_5_17_24 src_5 1
 v_5_17_24 tq_24_1 1.6
 v_5_17_24 path_5_17_24 1
 v_5_17_25 cost 14
 v_5_17_25 src_5 1
 v_5_17_25 tq_25_1 1.6
 v_5_17_25 path_5_17_25 1
 v_5_17_26 cost 14
 v_5_17_26 src_5 1
 v_5_17_26 tq_26_1 1.6
 v_5_17_26 path_5_17_26 1
 v_5_17_27 cost 14
 v_5_17_27 src_5 1
 v_5_17_27 tq_27_1 1.6
 v_5_17_27 path_5_17_27 1
 v_5_17_28 cost 14
 v_5_17_28 src_5 1
 v_5_17_28 tq_28_1 1.6
 v_5_17_28 path_5_17_28 1
 v_5_17_29 cost 14
 v_5_17_29 src_5 1
 v_5_17_29 tq_29_1 1.6
 v_5_17_29 path_5_17_29 1
 v_5_17_30 cost 14
 v_5_17_30 src_5 1
 v_5_17_30 tq_30_1 1.6
 v_5_17_30 path_5_17_30 1
 v_5_17_31 cost 14
 v_5_17_31 src_5 1
 v_5_17_31 tq_31_1 1.6
 v_5_17_31 path_5_17_31 1
 v_5_17_32 cost 14
 v_5_17_32 src_5 1
 v_5_17_32 tq_32_1 1.6
 v_5_17_32 path_5_17_32 1
 v_5_17_33 cost 14
 v_5_17_33 src_5 1
 v_5_17_33 tq_33_1 1.6
 v_5_17_33 path_5_17_33 1
 v_5_17_34 cost 14
 v_5_17_34 src_5 1
 v_5_17_34 tq_34_1 1.6
 v_5_17_34 path_5_17_34 1
 v_5_17_35 cost 14
 v_5_17_35 src_5 1
 v_5_17_35 tq_35_1 1.6
 v_5_17_35 path_5_17_35 1
 v_6_17_20 cost 15
 v_6_17_20 src_6 1
 v_6_17_20 tq_20_1 1.5
 v_6_17_20 path_6_17_20 1
 v_6_17_21 cost 15
 v_6_17_21 src_6 1
 v_6_17_21 tq_21_1 1.5
 v_6_17_21 path_6_17_21 1
 v_6_17_22 cost 15
 v_6_17_22 src_6 1
 v_6_17_22 tq_22_1 1.5
 v_6_17_22 path_6_17_22 1
 v_6_17_23 cost 15
 v_6_17_23 src_6 1
 v_6_17_23 tq_23_1 1.5
 v_6_17_23 path_6_17_23 1
 v_6_17_24 cost 15
 v_6_17_24 src_6 1
 v_6_17_24 tq_24_1 1.5
 v_6_17_24 path_6_17_24 1
 v_6_17_25 cost 15
 v_6_17_25 src_6 1
 v_6_17_25 tq_25_1 1.5
 v_6_17_25 path_6_17_25 1
 v_6_17_26 cost 15
 v_6_17_26 src_6 1
 v_6_17_26 tq_26_1 1.5
 v_6_17_26 path_6_17_26 1
 v_6_17_27 cost 15
 v_6_17_27 src_6 1
 v_6_17_27 tq_27_1 1.5
 v_6_17_27 path_6_17_27 1
 v_6_17_28 cost 15
 v_6_17_28 src_6 1
 v_6_17_28 tq_28_1 1.5
 v_6_17_28 path_6_17_28 1
 v_6_17_29 cost 15
 v_6_17_29 src_6 1
 v_6_17_29 tq_29_1 1.5
 v_6_17_29 path_6_17_29 1
 v_6_17_30 cost 15
 v_6_17_30 src_6 1
 v_6_17_30 tq_30_1 1.5
 v_6_17_30 path_6_17_30 1
 v_6_17_31 cost 15
 v_6_17_31 src_6 1
 v_6_17_31 tq_31_1 1.5
 v_6_17_31 path_6_17_31 1
 v_6_17_32 cost 15
 v_6_17_32 src_6 1
 v_6_17_32 tq_32_1 1.5
 v_6_17_32 path_6_17_32 1
 v_6_17_33 cost 15
 v_6_17_33 src_6 1
 v_6_17_33 tq_33_1 1.5
 v_6_17_33 path_6_17_33 1
 v_6_17_34 cost 15
 v_6_17_34 src_6 1
 v_6_17_34 tq_34_1 1.5
 v_6_17_34 path_6_17_34 1
 v_6_17_35 cost 15
 v_6_17_35 src_6 1
 v_6_17_35 tq_35_1 1.5
 v_6_17_35 path_6_17_35 1
 v_8_17_20 cost 17
 v_8_17_20 src_8 1
 v_8_17_20 tq_20_1 1.3
 v_8_17_20 path_8_17_20 1
 v_8_17_21 cost 17
 v_8_17_21 src_8 1
 v_8_17_21 tq_21_1 1.3
 v_8_17_21 path_8_17_21 1
 v_8_17_22 cost 17
 v_8_17_22 src_8 1
 v_8_17_22 tq_22_1 1.3
 v_8_17_22 path_8_17_22 1
 v_8_17_23 cost 17
 v_8_17_23 src_8 1
 v_8_17_23 tq_23_1 1.3
 v_8_17_23 path_8_17_23 1
 v_8_17_24 cost 17
 v_8_17_24 src_8 1
 v_8_17_24 tq_24_1 1.3
 v_8_17_24 path_8_17_24 1
 v_8_17_25 cost 17
 v_8_17_25 src_8 1
 v_8_17_25 tq_25_1 1.3
 v_8_17_25 path_8_17_25 1
 v_8_17_26 cost 17
 v_8_17_26 src_8 1
 v_8_17_26 tq_26_1 1.3
 v_8_17_26 path_8_17_26 1
 v_8_17_27 cost 17
 v_8_17_27 src_8 1
 v_8_17_27 tq_27_1 1.3
 v_8_17_27 path_8_17_27 1
 v_8_17_28 cost 17
 v_8_17_28 src_8 1
 v_8_17_28 tq_28_1 1.3
 v_8_17_28 path_8_17_28 1
 v_8_17_29 cost 17
 v_8_17_29 src_8 1
 v_8_17_29 tq_29_1 1.3
 v_8_17_29 path_8_17_29 1
 v_8_17_30 cost 17
 v_8_17_30 src_8 1
 v_8_17_30 tq_30_1 1.3
 v_8_17_30 path_8_17_30 1
 v_8_17_31 cost 17
 v_8_17_31 src_8 1
 v_8_17_31 tq_31_1 1.3
 v_8_17_31 path_8_17_31 1
 v_8_17_32 cost 17
 v_8_17_32 src_8 1
 v_8_17_32 tq_32_1 1.3
 v_8_17_32 path_8_17_32 1
 v_8_17_33 cost 17
 v_8_17_33 src_8 1
 v_8_17_33 tq_33_1 1.3
 v_8_17_33 path_8_17_33 1
 v_8_17_34 cost 17
 v_8_17_34 src_8 1
 v_8_17_34 tq_34_1 1.3
 v_8_17_34 path_8_17_34 1
 v_8_17_35 cost 17
 v_8_17_35 src_8 1
 v_8_17_35 tq_35_1 1.3
 v_8_17_35 path_8_17_35 1
 v_3_18_20 cost 12
 v_3_18_20 src_3 1
 v_3_18_20 tq_20_1 1.8
 v_3_18_20 path_3_18_20 1
 v_3_18_21 cost 12
 v_3_18_21 src_3 1
 v_3_18_21 tq_21_1 1.8
 v_3_18_21 path_3_18_21 1
 v_3_18_22 cost 12
 v_3_18_22 src_3 1
 v_3_18_22 tq_22_1 1.8
 v_3_18_22 path_3_18_22 1
 v_3_18_23 cost 12
 v_3_18_23 src_3 1
 v_3_18_23 tq_23_1 1.8
 v_3_18_23 path_3_18_23 1
 v_3_18_24 cost 12
 v_3_18_24 src_3 1
 v_3_18_24 tq_24_1 1.8
 v_3_18_24 path_3_18_24 1
 v_3_18_25 cost 12
 v_3_18_25 src_3 1
 v_3_18_25 tq_25_1 1.8
 v_3_18_25 path_3_18_25 1
 v_3_18_26 cost 12
 v_3_18_26 src_3 1
 v_3_18_26 tq_26_1 1.8
 v_3_18_26 path_3_18_26 1
 v_3_18_27 cost 12
 v_3_18_27 src_3 1
 v_3_18_27 tq_27_1 1.8
 v_3_18_27 path_3_18_27 1
 v_3_18_28 cost 12
 v_3_18_28 src_3 1
 v_3_18_28 tq_28_1 1.8
 v_3_18_28 path_3_18_28 1
 v_3_18_29 cost 12
 v_3_18_29 src_3 1
 v_3_18_29 tq_29_1 1.8
 v_3_18_29 path_3_18_29 1
 v_3_18_30 cost 12
 v_3_18_30 src_3 1
 v_3_18_30 tq_30_1 1.8
 v_3_18_30 path_3_18_30 1
 v_3_18_31 cost 12
 v_3_18_31 src_3 1
 v_3_18_31 tq_31_1 1.8
 v_3_18_31 path_3_18_31 1
 v_3_18_32 cost 12
 v_3_18_32 src_3 1
 v_3_18_32 tq_32_1 1.8
 v_3_18_32 path_3_18_32 1
 v_3_18_33 cost 12
 v_3_18_33 src_3 1
 v_3_18_33 tq_33_1 1.8
 v_3_18_33 path_3_18_33 1
 v_3_18_34 cost 12
 v_3_18_34 src_3 1
 v_3_18_34 tq_34_1 1.8
 v_3_18_34 path_3_18_34 1
 v_3_18_35 cost 12
 v_3_18_35 src_3 1
 v_3_18_35 tq_35_1 1.8
 v_3_18_35 path_3_18_35 1
 v_4_18_20 cost 13
 v_4_18_20 src_4 1
 v_4_18_20 tq_20_1 1.7
 v_4_18_20 path_4_18_20 1
 v_4_18_21 cost 13
 v_4_18_21 src_4 1
 v_4_18_21 tq_21_1 1.7
 v_4_18_21 path_4_18_21 1
 v_4_18_22 cost 13
 v_4_18_22 src_4 1
 v_4_18_22 tq_22_1 1.7
 v_4_18_22 path_4_18_22 1
 v_4_18_23 cost 13
 v_4_18_23 src_4 1
 v_4_18_23 tq_23_1 1.7
 v_4_18_23 path_4_18_23 1
 v_4_18_24 cost 13
 v_4_18_24 src_4 1
 v_4_18_24 tq_24_1 1.7
 v_4_18_24 path_4_18_24 1
 v_4_18_25 cost 13
 v_4_18_25 src_4 1
 v_4_18_25 tq_25_1 1.7
 v_4_18_25 path_4_18_25 1
 v_4_18_26 cost 13
 v_4_18_26 src_4 1
 v_4_18_26 tq_26_1 1.7
 v_4_18_26 path_4_18_26 1
 v_4_18_27 cost 13
 v_4_18_27 src_4 1
 v_4_18_27 tq_27_1 1.7
 v_4_18_27 path_4_18_27 1
 v_4_18_28 cost 13
 v_4_18_28 src_4 1
 v_4_18_28 tq_28_1 1.7
 v_4_18_28 path_4_18_28 1
 v_4_18_29 cost 13
 v_4_18_29 src_4 1
 v_4_18_29 tq_29_1 1.7
 v_4_18_29 path_4_18_29 1
 v_4_18_30 cost 13
 v_4_18_30 src_4 1
 v_4_18_30 tq_30_1 1.7
 v_4_18_30 path_4_18_30 1
 v_4_18_31 cost 13
 v_4_18_31 src_4 1
 v_4_18_31 tq_31_1 1.7
 v_4_18_31 path_4_18_31 1
 v_4_18_32 cost 13
 v_4_18_32 src_4 1
 v_4_18_32 tq_32_1 1.7
 v_4_18_32 path_4_18_32 1
 v_4_18_33 cost 13
 v_4_18_33 src_4 1
 v_4_18_33 tq_33_1 1.7
 v_4_18_33 path_4_18_33 1
 v_4_18_34 cost 13
 v_4_18_34 src_4 1
 v_4_18_34 tq_34_1 1.7
 v_4_18_34 path_4_18_34 1
 v_4_18_35 cost 13
 v_4_18_35 src_4 1
 v_4_18_35 tq_35_1 1.7
 v_4_18_35 path_4_18_35 1
 v_5_18_20 cost 14
 v_5_18_20 src_5 1
 v_5_18_20 tq_20_1 1.6
 v_5_18_20 path_5_18_20 1
 v_5_18_21 cost 14
 v_5_18_21 src_5 1
 v_5_18_21 tq_21_1 1.6
 v_5_18_21 path_5_18_21 1
 v_5_18_22 cost 14
 v_5_18_22 src_5 1
 v_5_18_22 tq_22_1 1.6
 v_5_18_22 path_5_18_22 1
 v_5_18_23 cost 14
 v_5_18_23 src_5 1
 v_5_18_23 tq_23_1 1.6
 v_5_18_23 path_5_18_23 1
 v_5_18_24 cost 14
 v_5_18_24 src_5 1
 v_5_18_24 tq_24_1 1.6
 v_5_18_24 path_5_18_24 1
 v_5_18_25 cost 14
 v_5_18_25 src_5 1
 v_5_18_25 tq_25_1 1.6
 v_5_18_25 path_5_18_25 1
 v_5_18_26 cost 14
 v_5_18_26 src_5 1
 v_5_18_26 tq_26_1 1.6
 v_5_18_26 path_5_18_26 1
 v_5_18_27 cost 14
 v_5_18_27 src_5 1
 v_5_18_27 tq_27_1 1.6
 v_5_18_27 path_5_18_27 1
 v_5_18_28 cost 14
 v_5_18_28 src_5 1
 v_5_18_28 tq_28_1 1.6
 v_5_18_28 path_5_18_28 1
 v_5_18_29 cost 14
 v_5_18_29 src_5 1
 v_5_18_29 tq_29_1 1.6
 v_5_18_29 path_5_18_29 1
 v_5_18_30 cost 14
 v_5_18_30 src_5 1
 v_5_18_30 tq_30_1 1.6
 v_5_18_30 path_5_18_30 1
 v_5_18_31 cost 14
 v_5_18_31 src_5 1
 v_5_18_31 tq_31_1 1.6
 v_5_18_31 path_5_18_31 1
 v_5_18_32 cost 14
 v_5_18_32 src_5 1
 v_5_18_32 tq_32_1 1.6
 v_5_18_32 path_5_18_32 1
 v_5_18_33 cost 14
 v_5_18_33 src_5 1
 v_5_18_33 tq_33_1 1.6
 v_5_18_33 path_5_18_33 1
 v_5_18_34 cost 14
 v_5_18_34 src_5 1
 v_5_18_34 tq_34_1 1.6
 v_5_18_34 path_5_18_34 1
 v_5_18_35 cost 14
 v_5_18_35 src_5 1
 v_5_18_35 tq_35_1 1.6
 v_5_18_35 path_5_18_35 1
 v_8_18_20 cost 17
 v_8_18_20 src_8 1
 v_8_18_20 tq_20_1 1.3
 v_8_18_20 path_8_18_20 1
 v_8_18_21 cost 17
 v_8_18_21 src_8 1
 v_8_18_21 tq_21_1 1.3
 v_8_18_21 path_8_18_21 1
 v_8_18_22 cost 17
 v_8_18_22 src_8 1
 v_8_18_22 tq_22_1 1.3
 v_8_18_22 path_8_18_22 1
 v_8_18_23 cost 17
 v_8_18_23 src_8 1
 v_8_18_23 tq_23_1 1.3
 v_8_18_23 path_8_18_23 1
 v_8_18_24 cost 17
 v_8_18_24 src_8 1
 v_8_18_24 tq_24_1 1.3
 v_8_18_24 path_8_18_24 1
 v_8_18_25 cost 17
 v_8_18_25 src_8 1
 v_8_18_25 tq_25_1 1.3
 v_8_18_25 path_8_18_25 1
 v_8_18_26 cost 17
 v_8_18_26 src_8 1
 v_8_18_26 tq_26_1 1.3
 v_8_18_26 path_8_18_26 1
 v_8_18_27 cost 17
 v_8_18_27 src_8 1
 v_8_18_27 tq_27_1 1.3
 v_8_18_27 path_8_18_27 1
 v_8_18_28 cost 17
 v_8_18_28 src_8 1
 v_8_18_28 tq_28_1 1.3
 v_8_18_28 path_8_18_28 1
 v_8_18_29 cost 17
 v_8_18_29 src_8 1
 v_8_18_29 tq_29_1 1.3
 v_8_18_29 path_8_18_29 1
 v_8_18_30 cost 17
 v_8_18_30 src_8 1
 v_8_18_30 tq_30_1 1.3
 v_8_18_30 path_8_18_30 1
 v_8_18_31 cost 17
 v_8_18_31 src_8 1
 v_8_18_31 tq_31_1 1.3
 v_8_18_31 path_8_18_31 1
 v_8_18_32 cost 17
 v_8_18_32 src_8 1
 v_8_18_32 tq_32_1 1.3
 v_8_18_32 path_8_18_32 1
 v_8_18_33 cost 17
 v_8_18_33 src_8 1
 v_8_18_33 tq_33_1 1.3
 v_8_18_33 path_8_18_33 1
 v_8_18_34 cost 17
 v_8_18_34 src_8 1
 v_8_18_34 tq_34_1 1.3
 v_8_18_34 path_8_18_34 1
 v_8_18_35 cost 17
 v_8_18_35 src_8 1
 v_8_18_35 tq_35_1 1.3
 v_8_18_35 path_8_18_35 1
 v_2_19_20 cost 11
 v_2_19_20 src_2 1
 v_2_19_20 tq_20_1 1.9
 v_2_19_20 path_2_19_20 1
 v_2_19_21 cost 11
 v_2_19_21 src_2 1
 v_2_19_21 tq_21_1 1.9
 v_2_19_21 path_2_19_21 1
 v_2_19_22 cost 11
 v_2_19_22 src_2 1
 v_2_19_22 tq_22_1 1.9
 v_2_19_22 path_2_19_22 1
 v_2_19_23 cost 11
 v_2_19_23 src_2 1
 v_2_19_23 tq_23_1 1.9
 v_2_19_23 path_2_19_23 1
 v_2_19_24 cost 11
 v_2_19_24 src_2 1
 v_2_19_24 tq_24_1 1.9
 v_2_19_24 path_2_19_24 1
 v_2_19_25 cost 11
 v_2_19_25 src_2 1
 v_2_19_25 tq_25_1 1.9
 v_2_19_25 path_2_19_25 1
 v_2_19_26 cost 11
 v_2_19_26 src_2 1
 v_2_19_26 tq_26_1 1.9
 v_2_19_26 path_2_19_26 1
 v_2_19_27 cost 11
 v_2_19_27 src_2 1
 v_2_19_27 tq_27_1 1.9
 v_2_19_27 path_2_19_27 1
 v_2_19_28 cost 11
 v_2_19_28 src_2 1
 v_2_19_28 tq_28_1 1.9
 v_2_19_28 path_2_19_28 1
 v_2_19_29 cost 11
 v_2_19_29 src_2 1
 v_2_19_29 tq_29_1 1.9
 v_2_19_29 path_2_19_29 1
 v_2_19_30 cost 11
 v_2_19_30 src_2 1
 v_2_19_30 tq_30_1 1.9
 v_2_19_30 path_2_19_30 1
 v_2_19_31 cost 11
 v_2_19_31 src_2 1
 v_2_19_31 tq_31_1 1.9
 v_2_19_31 path_2_19_31 1
 v_2_19_32 cost 11
 v_2_19_32 src_2 1
 v_2_19_32 tq_32_1 1.9
 v_2_19_32 path_2_19_32 1
 v_2_19_33 cost 11
 v_2_19_33 src_2 1
 v_2_19_33 tq_33_1 1.9
 v_2_19_33 path_2_19_33 1
 v_2_19_34 cost 11
 v_2_19_34 src_2 1
 v_2_19_34 tq_34_1 1.9
 v_2_19_34 path_2_19_34 1
 v_2_19_35 cost 11
 v_2_19_35 src_2 1
 v_2_19_35 tq_35_1 1.9
 v_2_19_35 path_2_19_35 1
 v_3_19_20 cost 12
 v_3_19_20 src_3 1
 v_3_19_20 tq_20_1 1.8
 v_3_19_20 path_3_19_20 1
 v_3_19_21 cost 12
 v_3_19_21 src_3 1
 v_3_19_21 tq_21_1 1.8
 v_3_19_21 path_3_19_21 1
 v_3_19_22 cost 12
 v_3_19_22 src_3 1
 v_3_19_22 tq_22_1 1.8
 v_3_19_22 path_3_19_22 1
 v_3_19_23 cost 12
 v_3_19_23 src_3 1
 v_3_19_23 tq_23_1 1.8
 v_3_19_23 path_3_19_23 1
 v_3_19_24 cost 12
 v_3_19_24 src_3 1
 v_3_19_24 tq_24_1 1.8
 v_3_19_24 path_3_19_24 1
 v_3_19_25 cost 12
 v_3_19_25 src_3 1
 v_3_19_25 tq_25_1 1.8
 v_3_19_25 path_3_19_25 1
 v_3_19_26 cost 12
 v_3_19_26 src_3 1
 v_3_19_26 tq_26_1 1.8
 v_3_19_26 path_3_19_26 1
 v_3_19_27 cost 12
 v_3_19_27 src_3 1
 v_3_19_27 tq_27_1 1.8
 v_3_19_27 path_3_19_27 1
 v_3_19_28 cost 12
 v_3_19_28 src_3 1
 v_3_19_28 tq_28_1 1.8
 v_3_19_28 path_3_19_28 1
 v_3_19_29 cost 12
 v_3_19_29 src_3 1
 v_3_19_29 tq_29_1 1.8
 v_3_19_29 path_3_19_29 1
 v_3_19_30 cost 12
 v_3_19_30 src_3 1
 v_3_19_30 tq_30_1 1.8
 v_3_19_30 path_3_19_30 1
 v_3_19_31 cost 12
 v_3_19_31 src_3 1
 v_3_19_31 tq_31_1 1.8
 v_3_19_31 path_3_19_31 1
 v_3_19_32 cost 12
 v_3_19_32 src_3 1
 v_3_19_32 tq_32_1 1.8
 v_3_19_32 path_3_19_32 1
 v_3_19_33 cost 12
 v_3_19_33 src_3 1
 v_3_19_33 tq_33_1 1.8
 v_3_19_33 path_3_19_33 1
 v_3_19_34 cost 12
 v_3_19_34 src_3 1
 v_3_19_34 tq_34_1 1.8
 v_3_19_34 path_3_19_34 1
 v_3_19_35 cost 12
 v_3_19_35 src_3 1
 v_3_19_35 tq_35_1 1.8
 v_3_19_35 path_3_19_35 1
 v_4_19_20 cost 13
 v_4_19_20 src_4 1
 v_4_19_20 tq_20_1 1.7
 v_4_19_20 path_4_19_20 1
 v_4_19_21 cost 13
 v_4_19_21 src_4 1
 v_4_19_21 tq_21_1 1.7
 v_4_19_21 path_4_19_21 1
 v_4_19_22 cost 13
 v_4_19_22 src_4 1
 v_4_19_22 tq_22_1 1.7
 v_4_19_22 path_4_19_22 1
 v_4_19_23 cost 13
 v_4_19_23 src_4 1
 v_4_19_23 tq_23_1 1.7
 v_4_19_23 path_4_19_23 1
 v_4_19_24 cost 13
 v_4_19_24 src_4 1
 v_4_19_24 tq_24_1 1.7
 v_4_19_24 path_4_19_24 1
 v_4_19_25 cost 13
 v_4_19_25 src_4 1
 v_4_19_25 tq_25_1 1.7
 v_4_19_25 path_4_19_25 1
 v_4_19_26 cost 13
 v_4_19_26 src_4 1
 v_4_19_26 tq_26_1 1.7
 v_4_19_26 path_4_19_26 1
 v_4_19_27 cost 13
 v_4_19_27 src_4 1
 v_4_19_27 tq_27_1 1.7
 v_4_19_27 path_4_19_27 1
 v_4_19_28 cost 13
 v_4_19_28 src_4 1
 v_4_19_28 tq_28_1 1.7
 v_4_19_28 path_4_19_28 1
 v_4_19_29 cost 13
 v_4_19_29 src_4 1
 v_4_19_29 tq_29_1 1.7
 v_4_19_29 path_4_19_29 1
 v_4_19_30 cost 13
 v_4_19_30 src_4 1
 v_4_19_30 tq_30_1 1.7
 v_4_19_30 path_4_19_30 1
 v_4_19_31 cost 13
 v_4_19_31 src_4 1
 v_4_19_31 tq_31_1 1.7
 v_4_19_31 path_4_19_31 1
 v_4_19_32 cost 13
 v_4_19_32 src_4 1
 v_4_19_32 tq_32_1 1.7
 v_4_19_32 path_4_19_32 1
 v_4_19_33 cost 13
 v_4_19_33 src_4 1
 v_4_19_33 tq_33_1 1.7
 v_4_19_33 path_4_19_33 1
 v_4_19_34 cost 13
 v_4_19_34 src_4 1
 v_4_19_34 tq_34_1 1.7
 v_4_19_34 path_4_19_34 1
 v_4_19_35 cost 13
 v_4_19_35 src_4 1
 v_4_19_35 tq_35_1 1.7
 v_4_19_35 path_4_19_35 1
 v_7_19_20 cost 16
 v_7_19_20 src_7 1
 v_7_19_20 tq_20_1 1.4
 v_7_19_20 path_7_19_20 1
 v_7_19_21 cost 16
 v_7_19_21 src_7 1
 v_7_19_21 tq_21_1 1.4
 v_7_19_21 path_7_19_21 1
 v_7_19_22 cost 16
 v_7_19_22 src_7 1
 v_7_19_22 tq_22_1 1.4
 v_7_19_22 path_7_19_22 1
 v_7_19_23 cost 16
 v_7_19_23 src_7 1
 v_7_19_23 tq_23_1 1.4
 v_7_19_23 path_7_19_23 1
 v_7_19_24 cost 16
 v_7_19_24 src_7 1
 v_7_19_24 tq_24_1 1.4
 v_7_19_24 path_7_19_24 1
 v_7_19_25 cost 16
 v_7_19_25 src_7 1
 v_7_19_25 tq_25_1 1.4
 v_7_19_25 path_7_19_25 1
 v_7_19_26 cost 16
 v_7_19_26 src_7 1
 v_7_19_26 tq_26_1 1.4
 v_7_19_26 path_7_19_26 1
 v_7_19_27 cost 16
 v_7_19_27 src_7 1
 v_7_19_27 tq_27_1 1.4
 v_7_19_27 path_7_19_27 1
 v_7_19_28 cost 16
 v_7_19_28 src_7 1
 v_7_19_28 tq_28_1 1.4
 v_7_19_28 path_7_19_28 1
 v_7_19_29 cost 16
 v_7_19_29 src_7 1
 v_7_19_29 tq_29_1 1.4
 v_7_19_29 path_7_19_29 1
 v_7_19_30 cost 16
 v_7_19_30 src_7 1
 v_7_19_30 tq_30_1 1.4
 v_7_19_30 path_7_19_30 1
 v_7_19_31 cost 16
 v_7_19_31 src_7 1
 v_7_19_31 tq_31_1 1.4
 v_7_19_31 path_7_19_31 1
 v_7_19_32 cost 16
 v_7_19_32 src_7 1
 v_7_19_32 tq_32_1 1.4
 v_7_19_32 path_7_19_32 1
 v_7_19_33 cost 16
 v_7_19_33 src_7 1
 v_7_19_33 tq_33_1 1.4
 v_7_19_33 path_7_19_33 1
 v_7_19_34 cost 16
 v_7_19_34 src_7 1
 v_7_19_34 tq_34_1 1.4
 v_7_19_34 path_7_19_34 1
 v_7_19_35 cost 16
 v_7_19_35 src_7 1
 v_7_19_35 tq_35_1 1.4
 v_7_19_35 path_7_19_35 1
RHS
 rhs src_1 16
 rhs src_2 16
 rhs src_3 16
 rhs src_4 16
 rhs src_5 16
 rhs src_6 16
 rhs src_7 16
 rhs src_8 16
 rhs src_9 16
 rhs src_10 16
 rhs src_11 16
 rhs dem_20 1
 rhs dem_21 1
 rhs dem_22 1
 rhs dem_23 1
 rhs dem_24 1
 rhs dem_25 1
 rhs dem_26 1
 rhs dem_27 1
 rhs dem_28 1
 rhs dem_29 1
 rhs dem_30 1
 rhs dem_31 1
 rhs dem_32 1
 rhs dem_33 1
 rhs dem_34 1
 rhs dem_35 1
 rhs sumq_12 1
 rhs cap_12 16
 rhs sumq_13 1
 rhs cap_13 16
 rhs sumq_14 1
 rhs cap_14 16
 rhs sumq_15 1
 rhs cap_15 16
 rhs sumq_16 1
 rhs cap_16 16
 rhs sumq_17 1
 rhs cap_17 16
 rhs sumq_18 1
 rhs cap_18 16
 rhs sumq_19 1
 rhs cap_19 16
BOUNDS
 UP bnd q_2_12 1
 UP bnd q_5_12 1
 UP bnd q_8_12 1
 UP bnd q_11_12 1
 UP bnd q_1_13 1
 UP bnd q_4_13 1
 UP bnd q_7_13 1
 UP bnd q_10_13 1
 UP bnd q_6_14 1
 UP bnd q_7_14 1
 UP bnd q_9_14 1
 UP bnd q_10_14 1
 UP bnd q_5_15 1
 UP bnd q_6_15 1
 UP bnd q_8_15 1
 UP bnd q_9_15 1
 UP bnd q_4_16 1
 UP bnd q_6_16 1
 UP bnd q_7_16 1
 UP bnd q_9_16 1
 UP bnd q_3_17 1
 UP bnd q_5_17 1
 UP bnd q_6_17 1
 UP bnd q_8_17 1
 UP bnd q_3_18 1
 UP bnd q_4_18 1
 UP bnd q_5_18 1
 UP bnd q_8_18 1
 UP bnd q_2_19 1
 UP bnd q_3_19 1
 UP bnd q_4_19 1
 UP bnd q_7_19 1
 UP bnd f_12_20 1
 UP bnd f_12_21 1
 UP bnd f_12_22 1
 UP bnd f_12_23 1
 UP bnd f_12_24 1
 UP bnd f_12_25 1
 UP bnd f_12_26 1
 UP bnd f_12_27 1
 UP bnd f_12_28 1
 UP bnd f_12_29 1
 UP bnd f_12_30 1
 UP bnd f_12_31 1
 UP bnd f_12_32 1
 UP bnd f_12_33 1
 UP bnd f_12_34 1
 UP bnd f_12_35 1
 UP bnd f_13_20 1
 UP bnd f_13_21 1
 UP bnd f_13_22 1
 UP bnd f_13_23 1
 UP bnd f_13_24 1
 UP bnd f_13_25 1
 UP bnd f_13_26 1
 UP bnd f_13_27 1
 UP bnd f_13_28 1
 UP bnd f_13_29 1
 UP bnd f_13_30 1
 UP bnd f_13_31 1
 UP bnd f_13_32 1
 UP bnd f_13_33 1
 UP bnd f_13_34 1
 UP bnd f_13_35 1
 UP bnd f_14_20 1
 UP bnd f_14_21 1
 UP bnd f_14_22 1
 UP bnd f_14_23 1
 UP bnd f_14_24 1
 UP bnd f_14_25 1
 UP bnd f_14_26 1
 UP bnd f_14_27 1
 UP bnd f_14_28 1
 UP bnd f_14_29 1
 UP bnd f_14_30 1
 UP bnd f_14_31 1
 UP bnd f_14_32 1
 UP bnd f_14_33 1
 UP bnd f_14_34 1
 UP bnd f_14_35 1
 UP bnd f_15_20 1
 UP bnd f_15_21 1
 UP bnd f_15_22 1
 UP bnd f_15_23 1
 UP bnd f_15_24 1
 UP bnd f_15_25 1
 UP bnd f_15_26 1
 UP bnd f_15_27 1
 UP bnd f_15_28 1
 UP bnd f_15_29 1
 UP bnd f_15_30 1
 UP bnd f_15_31 1
 UP bnd f_15_32 1
 UP bnd f_15_33 1
 UP bnd f_15_34 1
 UP bnd f_15_35 1
 UP bnd f_16_20 1
 UP bnd f_16_21 1
 UP bnd f_16_22 1
 UP bnd f_16_23 1
 UP bnd f_16_24 1
 UP bnd f_16_25 1
 UP bnd f_16_26 1
 UP bnd f_16_27 1
 UP bnd f_16_28 1
 UP bnd f_16_29 1
 UP bnd f_16_30 1
 UP bnd f_16_31 1
 UP bnd f_16_32 1
 UP bnd f_16_33 1
 UP bnd f_16_34 1
 UP bnd f_16_35 1
 UP bnd f_17_20 1
 UP bnd f_17_21 1
 UP bnd f_17_22 1
 UP bnd f_17_23 1
 UP bnd f_17_24 1
 UP bnd f_17_25 1
 UP bnd f_17_26 1
 UP bnd f_17_27 1
 UP bnd f_17_28 1
 UP bnd f_17_29 1
 UP bnd f_17_30 1
 UP bnd f_17_31 1
 UP bnd f_17_32 1
 UP bnd f_17_33 1
 UP bnd f_17_34 1
 UP bnd f_17_35 1
 UP bnd f_18_20 1
 UP bnd f_18_21 1
 UP bnd f_18_22 1
 UP bnd f_18_23 1
 UP bnd f_18_24 1
 UP bnd f_18_25 1
 UP bnd f_18_26 1
 UP bnd f_18_27 1
 UP bnd f_18_28 1
 UP bnd f_18_29 1
 UP bnd f_18_30 1
 UP bnd f_18_31 1
 UP bnd f_18_32 1
 UP bnd f_18_33 1
 UP bnd f_18_34 1
 UP bnd f_18_35 1
 UP bnd f_19_20 1
 UP bnd f_19_21 1
 UP bnd f_19_22 1
 UP bnd f_19_23 1
 UP bnd f_19_24 1
 UP bnd f_19_25 1
 UP bnd f_19_26 1
 UP bnd f_19_27 1
 UP bnd f_19_28 1
 UP bnd f_19_29 1
 UP bnd f_19_30 1
 UP bnd f_19_31 1
 UP bnd f_19_32 1
 UP bnd f_19_33 1
 UP bnd f_19_34 1
 UP bnd f_19_35 1
 UP bnd v_2_12_20 1
 UP bnd v_2_12_21 1
 UP bnd v_2_12_22 1
 UP bnd v_2_12_23 1
 UP bnd v_2_12_24 1
 UP bnd v_2_12_25 1
 UP bnd v_2_12_26 1
 UP bnd v_2_12_27 1
 UP bnd v_2_12_28 1
 UP bnd v_2_12_29 1
 UP bnd v_2_12_30 1
 UP bnd v_2_12_31 1
 UP bnd v_2_12_32 1
 UP bnd v_2_12_33 1
 UP bnd v_2_12_34 1
 UP bnd v_2_12_35 1
 UP bnd v_5_12_20 1
 UP bnd v_5_12_21 1
 UP bnd v_5_12_22 1
 UP bnd v_5_12_23 1
 UP bnd v_5_12_24 1
 UP bnd v_5_12_25 1
 UP bnd v_5_12_26 1
 UP bnd v_5_12_27 1
 UP bnd v_5_12_28 1
 UP bnd v_5_12_29 1
 UP bnd v_5_12_30 1
 UP bnd v_5_12_31 1
 UP bnd v_5_12_32 1
 UP bnd v_5_12_33 1
 UP bnd v_5_12_34 1
 UP bnd v_5_12_35 1
 UP bnd v_8_12_20 1
 UP bnd v_8_12_21 1
 UP bnd v_8_12_22 1
 UP bnd v_8_12_23 1
 UP bnd v_8_12_24 1
 UP bnd v_8_12_25 1
 UP bnd v_8_12_26 1
 UP bnd v_8_12_27 1
 UP bnd v_8_12_28 1
 UP bnd v_8_12_29 1
 UP bnd v_8_12_30 1
 UP bnd v_8_12_31 1
 UP bnd v_8_12_32 1
 UP bnd v_8_12_33 1
 UP bnd v_8_12_34 1
 UP bnd v_8_12_35 1
 UP bnd v_11_12_20 1
 UP bnd v_11_12_21 1
 UP bnd v_11_12_22 1
 UP bnd v_11_12_23 1
 UP bnd v_11_12_24 1
 UP bnd v_11_12_25 1
 UP bnd v_11_12_26 1
 UP bnd v_11_12_27 1
 UP bnd v_11_12_28 1
 UP bnd v_11_12_29 1
 UP bnd v_11_12_30 1
 UP bnd v_11_12_31 1
 UP bnd v_11_12_32 1
 UP bnd v_11_12_33 1
 UP bnd v_11_12_34 1
 UP bnd v_11_12_35 1
 UP bnd v_1_13_20 1
 UP bnd v_1_13_21 1
 UP bnd v_1_13_22 1
 UP bnd v_1_13_23 1
 UP bnd v_1_13_24 1
 UP bnd v_1_13_25 1
 UP bnd v_1_13_26 1
 UP bnd v_1_13_27 1
 UP bnd v_1_13_28 1
 UP bnd v_1_13_29 1
 UP bnd v_1_13_30 1
 UP bnd v_1_13_31 1
 UP bnd v_1_13_32 1
 UP bnd v_1_13_33 1
 UP bnd v_1_13_34 1
 UP bnd v_1_13_35 1
 UP bnd v_4_13_20 1
 UP bnd v_4_13_21 1
 UP bnd v_4_13_22 1
 UP bnd v_4_13_23 1
 UP bnd v_4_13_24 1
 UP bnd v_4_13_25 1
 UP bnd v_4_13_26 1
 UP bnd v_4_13_27 1
 UP bnd v_4_13_28 1
 UP bnd v_4_13_29 1
 UP bnd v_4_13_30 1
 UP bnd v_4_13_31 1
 UP bnd v_4_13_32 1
 UP bnd v_4_13_33 1
 UP bnd v_4_13_34 1
 UP bnd v_4_13_35 1
 UP bnd v_7_13_20 1
 UP bnd v_7_13_21 1
 UP bnd v_7_13_22 1
 UP bnd v_7_13_23 1
 UP bnd v_7_13_24 1
 UP bnd v_7_13_25 1
 UP bnd v_7_13_26 1
 UP bnd v_7_13_27 1
 UP bnd v_7_13_28 1
 UP bnd v_7_13_29 1
 UP bnd v_7_13_30 1
 UP bnd v_7_13_31 1
 UP bnd v_7_13_32 1
 UP bnd v_7_13_33 1
 UP bnd v_7_13_34 1
 UP bnd v_7_13_35 1
 UP bnd v_10_13_20 1
 UP bnd v_10_13_21 1
 UP bnd v_10_13_22 1
 UP bnd v_10_13_23 1
 UP bnd v_10_13_24 1
 UP bnd v_10_13_25 1
 UP bnd v_10_13_26 1
 UP bnd v_10_13_27 1
 UP bnd v_10_13_28 1
 UP bnd v_10_13_29 1
 UP bnd v_10_13_30 1
 UP bnd v_10_13_31 1
 UP bnd v_10_13_32 1
 UP bnd v_10_13_33 1
 UP bnd v_10_13_34 1
 UP bnd v_10_13_35 1
 UP bnd v_6_14_20 1
 UP bnd v_6_14_21 1
 UP bnd v_6_14_22 1
 UP bnd v_6_14_23 1
 UP bnd v_6_14_24 1
 UP bnd v_6_14_25 1
 UP bnd v_6_14_26 1
 UP bnd v_6_14_27 1
 UP bnd v_6_14_28 1
 UP bnd v_6_14_29 1
 UP bnd v_6_14_30 1
 UP bnd v_6_14_31 1
 UP bnd v_6_14_32 1
 UP bnd v_6_14_33 1
 UP bnd v_6_14_34 1
 UP bnd v_6_14_35 1
 UP bnd v_7_14_20 1
 UP bnd v_7_14_21 1
 UP bnd v_7_14_22 1
 UP bnd v_7_14_23 1
 UP bnd v_7_14_24 1
 UP bnd v_7_14_25 1
 UP bnd v_7_14_26 1
 UP bnd v_7_14_27 1
 UP bnd v_7_14_28 1
 UP bnd v_7_14_29 1
 UP bnd v_7_14_30 1
 UP bnd v_7_14_31 1
 UP bnd v_7_14_32 1
 UP bnd v_7_14_33 1
 UP bnd v_7_14_34 1
 UP bnd v_7_14_35 1
 UP bnd v_9_14_20 1
 UP bnd v_9_14_21 1
 UP bnd v_9_14_22 1
 UP bnd v_9_14_23 1
 UP bnd v_9_14_24 1
 UP bnd v_9_14_25 1
 UP bnd v_9_14_26 1
 UP bnd v_9_14_27 1
 UP bnd v_9_14_28 1
 UP bnd v_9_14_29 1
 UP bnd v_9_14_30 1
 UP bnd v_9_14_31 1
 UP bnd v_9_14_32 1
 UP bnd v_9_14_33 1
 UP bnd v_9_14_34 1
 UP bnd v_9_14_35 1
 UP bnd v_10_14_20 1
 UP bnd v_10_14_21 1
 UP bnd v_10_14_22 1
 UP bnd v_10_14_23 1
 UP bnd v_10_14_24 1
 UP bnd v_10_14_25 1
 UP bnd v_10_14_26 1
 UP bnd v_10_14_27 1
 UP bnd v_10_14_28 1
 UP bnd v_10_14_29 1
 UP bnd v_10_14_30 1
 UP bnd v_10_14_31 1
 UP bnd v_10_14_32 1
 UP bnd v_10_14_33 1
 UP bnd v_10_14_34 1
 UP bnd v_10_14_35 1
 UP bnd v_5_15_20 1
 UP bnd v_5_15_21 1
 UP bnd v_5_15_22 1
 UP bnd v_5_15_23 1
 UP bnd v_5_15_24 1
 UP bnd v_5_15_25 1
 UP bnd v_5_15_26 1
 UP bnd v_5_15_27 1
 UP bnd v_5_15_28 1
 UP bnd v_5_15_29 1
 UP bnd v_5_15_30 1
 UP bnd v_5_15_31 1
 UP bnd v_5_15_32 1
 UP bnd v_5_15_33 1
 UP bnd v_5_15_34 1
 UP bnd v_5_15_35 1
 UP bnd v_6_15_20 1
 UP bnd v_6_15_21 1
 UP bnd v_6_15_22 1
 UP bnd v_6_15_23 1
 UP bnd v_6_15_24 1
 UP bnd v_6_15_25 1
 UP bnd v_6_15_26 1
 UP bnd v_6_15_27 1
 UP bnd v_6_15_28 1
 UP bnd v_6_15_29 1
 UP bnd v_6_15_30 1
 UP bnd v_6_15_31 1
 UP bnd v_6_15_32 1
 UP bnd v_6_15_33 1
 UP bnd v_6_15_34 1
 UP bnd v_6_15_35 1
 UP bnd v_8_15_20 1
 UP bnd v_8_15_21 1
 UP bnd v_8_15_22 1
 UP bnd v_8_15_23 1
 UP bnd v_8_15_24 1
 UP bnd v_8_15_25 1
 UP bnd v_8_15_26 1
 UP bnd v_8_15_27 1
 UP bnd v_8_15_28 1
 UP bnd v_8_15_29 1
 UP bnd v_8_15_30 1
 UP bnd v_8_15_31 1
 UP bnd v_8_15_32 1
 UP bnd v_8_15_33 1
 UP bnd v_8_15_34 1
 UP bnd v_8_15_35 1
 UP bnd v_9_15_20 1
 UP bnd v_9_15_21 1
 UP bnd v_9_15_22 1
 UP bnd v_9_15_23 1
 UP bnd v_9_15_24 1
 UP bnd v_9_15_25 1
 UP bnd v_9_15_26 1
 UP bnd v_9_15_27 1
 UP bnd v_9_15_28 1
 UP bnd v_9_15_29 1
 UP bnd v_9_15_30 1
 UP bnd v_9_15_31 1
 UP bnd v_9_15_32 1
 UP bnd v_9_15_33 1
 UP bnd v_9_15_34 1
 UP bnd v_9_15_35 1
 UP bnd v_4_16_20 1
 UP bnd v_4_16_21 1
 UP bnd v_4_16_22 1
 UP bnd v_4_16_23 1
 UP bnd v_4_16_24 1
 UP bnd v_4_16_25 1
 UP bnd v_4_16_26 1
 UP bnd v_4_16_27 1
 UP bnd v_4_16_28 1
 UP bnd v_4_16_29 1
 UP bnd v_4_16_30 1
 UP bnd v_4_16_31 1
 UP bnd v_4_16_32 1
 UP bnd v_4_16_33 1
 UP bnd v_4_16_34 1
 UP bnd v_4_16_35 1
 UP bnd v_6_16_20 1
 UP bnd v_6_16_21 1
 UP bnd v_6_16_22 1
 UP bnd v_6_16_23 1
 UP bnd v_6_16_24 1
 UP bnd v_6_16_25 1
 UP bnd v_6_16_26 1
 UP bnd v_6_16_27 1
 UP bnd v_6_16_28 1
 UP bnd v_6_16_29 1
 UP bnd v_6_16_30 1
 UP bnd v_6_16_31 1
 UP bnd v_6_16_32 1
 UP bnd v_6_16_33 1
 UP bnd v_6_16_34 1
 UP bnd v_6_16_35 1
 UP bnd v_7_16_20 1
 UP bnd v_7_16_21 1
 UP bnd v_7_16_22 1
 UP bnd v_7_16_23 1
 UP bnd v_7_16_24 1
 UP bnd v_7_16_25 1
 UP bnd v_7_16_26 1
 UP bnd v_7_16_27 1
 UP bnd v_7_16_28 1
 UP bnd v_7_16_29 1
 UP bnd v_7_16_30 1
 UP bnd v_7_16_31 1
 UP bnd v_7_16_32 1
 UP bnd v_7_16_33 1
 UP bnd v_7_16_34 1
 UP bnd v_7_16_35 1
 UP bnd v_9_16_20 1
 UP bnd v_9_16_21 1
 UP bnd v_9_16_22 1
 UP bnd v_9_16_23 1
 UP bnd v_9_16_24 1
 UP bnd v_9_16_25 1
 UP bnd v_9_16_26 1
 UP bnd v_9_16_27 1
 UP bnd v_9_16_28 1
 UP bnd v_9_16_29 1
 UP bnd v_9_16_30 1
 UP bnd v_9_16_31 1
 UP bnd v_9_16_32 1
 UP bnd v_9_16_33 1
 UP bnd v_9_16_34 1
 UP bnd v_9_16_35 1
 UP bnd v_3_17_20 1
 UP bnd v_3_17_21 1
 UP bnd v_3_17_22 1
 UP bnd v_3_17_23 1
 UP bnd v_3_17_24 1
 UP bnd v_3_17_25 1
 UP bnd v_3_17_26 1
 UP bnd v_3_17_27 1
 UP bnd v_3_17_28 1
 UP bnd v_3_17_29 1
 UP bnd v_3_17_30 1
 UP bnd v_3_17_31 1
 UP bnd v_3_17_32 1
 UP bnd v_3_17_33 1
 UP bnd v_3_17_34 1
 UP bnd v_3_17_35 1
 UP bnd v_5_17_20 1
 UP bnd v_5_17_21 1
 UP bnd v_5_17_22 1
 UP bnd v_5_17_23 1
 UP bnd v_5_17_24 1
 UP bnd v_5_17_25 1
 UP bnd v_5_17_26 1
 UP bnd v_5_17_27 1
 UP bnd v_5_17_28 1
 UP bnd v_5_17_29 1
 UP bnd v_5_17_30 1
 UP bnd v_5_17_31 1
 UP bnd v_5_17_32 1
 UP bnd v_5_17_33 1
 UP bnd v_5_17_34 1
 UP bnd v_5_17_35 1
 UP bnd v_6_17_20 1
 UP bnd v_6_17_21 1
 UP bnd v_6_17_22 1
 UP bnd v_6_17_23 1
 UP bnd v_6_17_24 1
 UP bnd v_6_17_25 1
 UP bnd v_6_17_26 1
 UP bnd v_6_17_27 1
 UP bnd v_6_17_28 1
 UP bnd v_6_17_29 1
 UP bnd v_6_17_30 1
 UP bnd v_6_17_31 1
 UP bnd v_6_17_32 1
 UP bnd v_6_17_33 1
 UP bnd v_6_17_34 1
 UP bnd v_6_17_35 1
 UP bnd v_8_17_20 1
 UP bnd v_8_17_21 1
 UP bnd v_8_17_22 1
 UP bnd v_8_17_23 1
 UP bnd v_8_17_24 1
 UP bnd v_8_17_25 1
 UP bnd v_8_17_26 1
 UP bnd v_8_17_27 1
 UP bnd v_8_17_28 1
 UP bnd v_8_17_29 1
 UP bnd v_8_17_30 1
 UP bnd v_8_17_31 1
 UP bnd v_8_17_32 1
 UP bnd v_8_17_33 1
 UP bnd v_8_17_34 1
 UP bnd v_8_17_35 1
 UP bnd v_3_18_20 1
 UP bnd v_3_18_21 1
 UP bnd v_3_18_22 1
 UP bnd v_3_18_23 1
 UP bnd v_3_18_24 1
 UP bnd v_3_18_25 1
 UP bnd v_3_18_26 1
 UP bnd v_3_18_27 1
 UP bnd v_3_18_28 1
 UP bnd v_3_18_29 1
 UP bnd v_3_18_30 1
 UP bnd v_3_18_31 1
 UP bnd v_3_18_32 1
 UP bnd v_3_18_33 1
 UP bnd v_3_18_34 1
 UP bnd v_3_18_35 1
 UP bnd v_4_18_20 1
 UP bnd v_4_18_21 1
 UP bnd v_4_18_22 1
 UP bnd v_4_18_23 1
 UP bnd v_4_18_24 1
 UP bnd v_4_18_25 1
 UP bnd v_4_18_26 1
 UP bnd v_4_18_27 1
 UP bnd v_4_18_28 1
 UP bnd v_4_18_29 1
 UP bnd v_4_18_30 1
 UP bnd v_4_18_31 1
 UP bnd v_4_18_32 1
 UP bnd v_4_18_33 1
 UP bnd v_4_18_34 1
 UP bnd v_4_18_35 1
 UP bnd v_5_18_20 1
 UP bnd v_5_18_21 1
 UP bnd v_5_18_22 1
 UP bnd v_5_18_23 1
 UP bnd v_5_18_24 1
 UP bnd v_5_18_25 1
 UP bnd v_5_18_26 1
 UP bnd v_5_18_27 1
 UP bnd v_5_18_28 1
 UP bnd v_5_18_29 1
 UP bnd v_5_18_30 1
 UP bnd v_5_18_31 1
 UP bnd v_5_18_32 1
 UP bnd v_5_18_33 1
 UP bnd v_5_18_34 1
 UP bnd v_5_18_35 1
 UP bnd v_8_18_20 1
 UP bnd v_8_18_21 1
 UP bnd v_8_18_22 1
 UP bnd v_8_18_23 1
 UP bnd v_8_18_24 1
 UP bnd v_8_18_25 1
 UP bnd v_8_18_26 1
 UP bnd v_8_18_27 1
 UP bnd v_8_18_28 1
 UP bnd v_8_18_29 1
 UP bnd v_8_18_30 1
 UP bnd v_8_18_31 1
 UP bnd v_8_18_32 1
 UP bnd v_8_18_33 1
 UP bnd v_8_18_34 1
 UP bnd v_8_18_35 1
 UP bnd v_2_19_20 1
 UP bnd v_2_19_21 1
 UP bnd v_2_19_22 1
 UP bnd v_2_19_23 1
 UP bnd v_2_19_24 1
 UP bnd v_2_19_25 1
 UP bnd v_2_19_26 1
 UP bnd v_2_19_27 1
 UP bnd v_2_19_28 1
 UP bnd v_2_19_29 1
 UP bnd v_2_19_30 1
 UP bnd v_2_19_31 1
 UP bnd v_2_19_32 1
 UP bnd v_2_19_33 1
 UP bnd v_2_19_34 1
 UP bnd v_2_19_35 1
 UP bnd v_3_19_20 1
 UP bnd v_3_19_21 1
 UP bnd v_3_19_22 1
 UP bnd v_3_19_23 1
 UP bnd v_3_19_24 1
 UP bnd v_3_19_25 1
 UP bnd v_3_19_26 1
 UP bnd v_3_19_27 1
 UP bnd v_3_19_28 1
 UP bnd v_3_19_29 1
 UP bnd v_3_19_30 1
 UP bnd v_3_19_31 1
 UP bnd v_3_19_32 1
 UP bnd v_3_19_33 1
 UP bnd v_3_19_34 1
 UP bnd v_3_19_35 1
 UP bnd v_4_19_20 1
 UP bnd v_4_19_21 1
 UP bnd v_4_19_22 1
 UP bnd v_4_19_23 1
 UP bnd v_4_19_24 1
 UP bnd v_4_19_25 1
 UP bnd v_4_19_26 1
 UP bnd v_4_19_27 1
 UP bnd v_4_19_28 1
 UP bnd v_4_19_29 1
 UP bnd v_4_19_30 1
 UP bnd v_4_19_31 1
 UP bnd v_4_19_32 1
 UP bnd v_4_19_33 1
 UP bnd v_4_19_34 1
 UP bnd v_4_19_35 1
 UP bnd v_7_19_20 1
 UP bnd v_7_19_21 1
 UP bnd v_7_19_22 1
 UP bnd v_7_19_23 1
 UP bnd v_7_19_24 1
 UP bnd v_7_19_25 1
 UP bnd v_7_19_26 1
 UP bnd v_7_19_27 1
 UP bnd v_7_19_28 1
 UP bnd v_7_19_29 1
 UP bnd v_7_19_30 1
 UP bnd v_7_19_31 1
 UP bnd v_7_19_32 1
 UP bnd v_7_19_33 1
 UP bnd v_7_19_34 1
 UP bnd v_7_19_35 1
QCMATRIX path_2_12_20
 f_12_20 q_2_12 -0.5
 q_2_12 f_12_20 -0.5
QCMATRIX path_2_12_21
 f_12_21 q_2_12 -0.5
 q_2_12 f_12_21 -0.5
QCMATRIX path_2_12_22
 f_12_22 q_2_12 -0.5
 q_2_12 f_12_22 -0.5
QCMATRIX path_2_12_23
 f_12_23 q_2_12 -0.5
 q_2_12 f_12_23 -0.5
QCMATRIX path_2_12_24
 f_12_24 q_2_12 -0.5
 q_2_12 f_12_24 -0.5
QCMATRIX path_2_12_25
 f_12_25 q_2_12 -0.5
 q_2_12 f_12_25 -0.5
QCMATRIX path_2_12_26
 f_12_26 q_2_12 -0.5
 q_2_12 f_12_26 -0.5
QCMATRIX path_2_12_27
 f_12_27 q_2_12 -0.5
 q_2_12 f_12_27 -0.5
QCMATRIX path_2_12_28
 f_12_28 q_2_12 -0.5
 q_2_12 f_12_28 -0.5
QCMATRIX path_2_12_29
 f_12_29 q_2_12 -0.5
 q_2_12 f_12_29 -0.5
QCMATRIX path_2_12_30
 f_12_30 q_2_12 -0.5
 q_2_12 f_12_30 -0.5
QCMATRIX path_2_12_31
 f_12_31 q_2_12 -0.5
 q_2_12 f_12_31 -0.5
QCMATRIX path_2_12_32
 f_12_32 q_2_12 -0.5
 q_2_12 f_12_32 -0.5
QCMATRIX path_2_12_33
 f_12_33 q_2_12 -0.5
 q_2_12 f_12_33 -0.5
QCMATRIX path_2_12_34
 f_12_34 q_2_12 -0.5
 q_2_12 f_12_34 -0.5
QCMATRIX path_2_12_35
 f_12_35 q_2_12 -0.5
 q_2_12 f_12_35 -0.5
QCMATRIX path_5_12_20
 f_12_20 q_5_12 -0.5
 q_5_12 f_12_20 -0.5
QCMATRIX path_5_12_21
 f_12_21 q_5_12 -0.5
 q_5_12 f_12_21 -0.5
QCMATRIX path_5_12_22
 f_12_22 q_5_12 -0.5
 q_5_12 f_12_22 -0.5
QCMATRIX path_5_12_23
 f_12_23 q_5_12 -0.5
 q_5_12 f_12_23 -0.5
QCMATRIX path_5_12_24
 f_12_24 q_5_12 -0.5
 q_5_12 f_12_24 -0.5
QCMATRIX path_5_12_25
 f_12_25 q_5_12 -0.5
 q_5_12 f_12_25 -0.5
QCMATRIX path_5_12_26
 f_12_26 q_5_12 -0.5
 q_5_12 f_12_26 -0.5
QCMATRIX path_5_12_27
 f_12_27 q_5_12 -0.5
 q_5_12 f_12_27 -0.5
QCMATRIX path_5_12_28
 f_12_28 q_5_12 -0.5
 q_5_12 f_12_28 -0.5
QCMATRIX path_5_12_29
 f_12_29 q_5_12 -0.5
 q_5_12 f_12_29 -0.5
QCMATRIX path_5_12_30
 f_12_30 q_5_12 -0.5
 q_5_12 f_12_30 -0.5
QCMATRIX path_5_12_31
 f_12_31 q_5_12 -0.5
 q_5_12 f_12_31 -0.5
QCMATRIX path_5_12_32
 f_12_32 q_5_12 -0.5
 q_5_12 f_12_32 -0.5
QCMATRIX path_5_12_33
 f_12_33 q_5_12 -0.5
 q_5_12 f_12_33 -0.5
QCMATRIX path_5_12_34
 f_12_34 q_5_12 -0.5
 q_5_12 f_12_34 -0.5
QCMATRIX path_5_12_35
 f_12_35 q_5_12 -0.5
 q_5_12 f_12_35 -0.5
QCMATRIX path_8_12_20
 f_12_20 q_8_12 -0.5
 q_8_12 f_12_20 -0.5
QCMATRIX path_8_12_21
 f_12_21 q_8_12 -0.5
 q_8_12 f_12_21 -0.5
QCMATRIX path_8_12_22
 f_12_22 q_8_12 -0.5
 q_8_12 f_12_22 -0.5
QCMATRIX path_8_12_23
 f_12_23 q_8_12 -0.5
 q_8_12 f_12_23 -0.5
QCMATRIX path_8_12_24
 f_12_24 q_8_12 -0.5
 q_8_12 f_12_24 -0.5
QCMATRIX path_8_12_25
 f_12_25 q_8_12 -0.5
 q_8_12 f_12_25 -0.5
QCMATRIX path_8_12_26
 f_12_26 q_8_12 -0.5
 q_8_12 f_12_26 -0.5
QCMATRIX path_8_12_27
 f_12_27 q_8_12 -0.5
 q_8_12 f_12_27 -0.5
QCMATRIX path_8_12_28
 f_12_28 q_8_12 -0.5
 q_8_12 f_12_28 -0.5
QCMATRIX path_8_12_29
 f_12_29 q_8_12 -0.5
 q_8_12 f_12_29 -0.5
QCMATRIX path_8_12_30
 f_12_30 q_8_12 -0.5
 q_8_12 f_12_30 -0.5
QCMATRIX path_8_12_31
 f_12_31 q_8_12 -0.5
 q_8_12 f_12_31 -0.5
QCMATRIX path_8_12_32
 f_12_32 q_8_12 -0.5
 q_8_12 f_12_32 -0.5
QCMATRIX path_8_12_33
 f_12_33 q_8_12 -0.5
 q_8_12 f_12_33 -0.5
QCMATRIX path_8_12_34
 f_12_34 q_8_12 -0.5
 q_8_12 f_12_34 -0.5
QCMATRIX path_8_12_35
 f_12_35 q_8_12 -0.5
 q_8_12 f_12_35 -0.5
QCMATRIX path_11_12_20
 f_12_20 q_11_12 -0.5
 q_11_12 f_12_20 -0.5
QCMATRIX path_11_12_21
 f_12_21 q_11_12 -0.5
 q_11_12 f_12_21 -0.5
QCMATRIX path_11_12_22
 f_12_22 q_11_12 -0.5
 q_11_12 f_12_22 -0.5
QCMATRIX path_11_12_23
 f_12_23 q_11_12 -0.5
 q_11_12 f_12_23 -0.5
QCMATRIX path_11_12_24
 f_12_24 q_11_12 -0.5
 q_11_12 f_12_24 -0.5
QCMATRIX path_11_12_25
 f_12_25 q_11_12 -0.5
 q_11_12 f_12_25 -0.5
QCMATRIX path_11_12_26
 f_12_26 q_11_12 -0.5
 q_11_12 f_12_26 -0.5
QCMATRIX path_11_12_27
 f_12_27 q_11_12 -0.5
 q_11_12 f_12_27 -0.5
QCMATRIX path_11_12_28
 f_12_28 q_11_12 -0.5
 q_11_12 f_12_28 -0.5
QCMATRIX path_11_12_29
 f_12_29 q_11_12 -0.5
 q_11_12 f_12_29 -0.5
QCMATRIX path_11_12_30
 f_12_30 q_11_12 -0.5
 q_11_12 f_12_30 -0.5
QCMATRIX path_11_12_31
 f_12_31 q_11_12 -0.5
 q_11_12 f_12_31 -0.5
QCMATRIX path_11_12_32
 f_12_32 q_11_12 -0.5
 q_11_12 f_12_32 -0.5
QCMATRIX path_11_12_33
 f_12_33 q_11_12 -0.5
 q_11_12 f_12_33 -0.5
QCMATRIX path_11_12_34
 f_12_34 q_11_12 -0.5
 q_11_12 f_12_34 -0.5
QCMATRIX path_11_12_35
 f_12_35 q_11_12 -0.5
 q_11_12 f_12_35 -0.5
QCMATRIX path_1_13_20
 f_13_20 q_1_13 -0.5
 q_1_13 f_13_20 -0.5
QCMATRIX path_1_13_21
 f_13_21 q_1_13 -0.5
 q_1_13 f_13_21 -0.5
QCMATRIX path_1_13_22
 f_13_22 q_1_13 -0.5
 q_1_13 f_13_22 -0.5
QCMATRIX path_1_13_23
 f_13_23 q_1_13 -0.5
 q_1_13 f_13_23 -0.5
QCMATRIX path_1_13_24
 f_13_24 q_1_13 -0.5
 q_1_13 f_13_24 -0.5
QCMATRIX path_1_13_25
 f_13_25 q_1_13 -0.5
 q_1_13 f_13_25 -0.5
QCMATRIX path_1_13_26
 f_13_26 q_1_13 -0.5
 q_1_13 f_13_26 -0.5
QCMATRIX path_1_13_27
 f_13_27 q_1_13 -0.5
 q_1_13 f_13_27 -0.5
QCMATRIX path_1_13_28
 f_13_28 q_1_13 -0.5
 q_1_13 f_13_28 -0.5
QCMATRIX path_1_13_29
 f_13_29 q_1_13 -0.5
 q_1_13 f_13_29 -0.5
QCMATRIX path_1_13_30
 f_13_30 q_1_13 -0.5
 q_1_13 f_13_30 -0.5
QCMATRIX path_1_13_31
 f_13_31 q_1_13 -0.5
 q_1_13 f_13_31 -0.5
QCMATRIX path_1_13_32
 f_13_32 q_1_13 -0.5
 q_1_13 f_13_32 -0.5
QCMATRIX path_1_13_33
 f_13_33 q_1_13 -0.5
 q_1_13 f_13_33 -0.5
QCMATRIX path_1_13_34
 f_13_34 q_1_13 -0.5
 q_1_13 f_13_34 -0.5
QCMATRIX path_1_13_35
 f_13_35 q_1_13 -0.5
 q_1_13 f_13_35 -0.5
QCMATRIX path_4_13_20
 f_13_20 q_4_13 -0.5
 q_4_13 f_13_20 -0.5
QCMATRIX path_4_13_21
 f_13_21 q_4_13 -0.5
 q_4_13 f_13_21 -0.5
QCMATRIX path_4_13_22
 f_13_22 q_4_13 -0.5
 q_4_13 f_13_22 -0.5
QCMATRIX path_4_13_23
 f_13_23 q_4_13 -0.5
 q_4_13 f_13_23 -0.5
QCMATRIX path_4_13_24
 f_13_24 q_4_13 -0.5
 q_4_13 f_13_24 -0.5
QCMATRIX path_4_13_25
 f_13_25 q_4_13 -0.5
 q_4_13 f_13_25 -0.5
QCMATRIX path_4_13_26
 f_13_26 q_4_13 -0.5
 q_4_13 f_13_26 -0.5
QCMATRIX path_4_13_27
 f_13_27 q_4_13 -0.5
 q_4_13 f_13_27 -0.5
QCMATRIX path_4_13_28
 f_13_28 q_4_13 -0.5
 q_4_13 f_13_28 -0.5
QCMATRIX path_4_13_29
 f_13_29 q_4_13 -0.5
 q_4_13 f_13_29 -0.5
QCMATRIX path_4_13_30
 f_13_30 q_4_13 -0.5
 q_4_13 f_13_30 -0.5
QCMATRIX path_4_13_31
 f_13_31 q_4_13 -0.5
 q_4_13 f_13_31 -0.5
QCMATRIX path_4_13_32
 f_13_32 q_4_13 -0.5
 q_4_13 f_13_32 -0.5
QCMATRIX path_4_13_33
 f_13_33 q_4_13 -0.5
 q_4_13 f_13_33 -0.5
QCMATRIX path_4_13_34
 f_13_34 q_4_13 -0.5
 q_4_13 f_13_34 -0.5
QCMATRIX path_4_13_35
 f_13_35 q_4_13 -0.5
 q_4_13 f_13_35 -0.5
QCMATRIX path_7_13_20
 f_13_20 q_7_13 -0.5
 q_7_13 f_13_20 -0.5
QCMATRIX path_7_13_21
 f_13_21 q_7_13 -0.5
 q_7_13 f_13_21 -0.5
QCMATRIX path_7_13_22
 f_13_22 q_7_13 -0.5
 q_7_13 f_13_22 -0.5
QCMATRIX path_7_13_23
 f_13_23 q_7_13 -0.5
 q_7_13 f_13_23 -0.5
QCMATRIX path_7_13_24
 f_13_24 q_7_13 -0.5
 q_7_13 f_13_24 -0.5
QCMATRIX path_7_13_25
 f_13_25 q_7_13 -0.5
 q_7_13 f_13_25 -0.5
QCMATRIX path_7_13_26
 f_13_26 q_7_13 -0.5
 q_7_13 f_13_26 -0.5
QCMATRIX path_7_13_27
 f_13_27 q_7_13 -0.5
 q_7_13 f_13_27 -0.5
QCMATRIX path_7_13_28
 f_13_28 q_7_13 -0.5
 q_7_13 f_13_28 -0.5
QCMATRIX path_7_13_29
 f_13_29 q_7_13 -0.5
 q_7_13 f_13_29 -0.5
QCMATRIX path_7_13_30
 f_13_30 q_7_13 -0.5
 q_7_13 f_13_30 -0.5
QCMATRIX path_7_13_31
 f_13_31 q_7_13 -0.5
 q_7_13 f_13_31 -0.5
QCMATRIX path_7_13_32
 f_13_32 q_7_13 -0.5
 q_7_13 f_13_32 -0.5
QCMATRIX path_7_13_33
 f_13_33 q_7_13 -0.5
 q_7_13 f_13_33 -0.5
QCMATRIX path_7_13_34
 f_13_34 q_7_13 -0.5
 q_7_13 f_13_34 -0.5
QCMATRIX path_7_13_35
 f_13_35 q_7_13 -0.5
 q_7_13 f_13_35 -0.5
QCMATRIX path_10_13_20
 f_13_20 q_10_13 -0.5
 q_10_13 f_13_20 -0.5
QCMATRIX path_10_13_21
 f_13_21 q_10_13 -0.5
 q_10_13 f_13_21 -0.5
QCMATRIX path_10_13_22
 f_13_22 q_10_13 -0.5
 q_10_13 f_13_22 -0.5
QCMATRIX path_10_13_23
 f_13_23 q_10_13 -0.5
 q_10_13 f_13_23 -0.5
QCMATRIX path_10_13_24
 f_13_24 q_10_13 -0.5
 q_10_13 f_13_24 -0.5
QCMATRIX path_10_13_25
 f_13_25 q_10_13 -0.5
 q_10_13 f_13_25 -0.5
QCMATRIX path_10_13_26
 f_13_26 q_10_13 -0.5
 q_10_13 f_13_26 -0.5
QCMATRIX path_10_13_27
 f_13_27 q_10_13 -0.5
 q_10_13 f_13_27 -0.5
QCMATRIX path_10_13_28
 f_13_28 q_10_13 -0.5
 q_10_13 f_13_28 -0.5
QCMATRIX path_10_13_29
 f_13_29 q_10_13 -0.5
 q_10_13 f_13_29 -0.5
QCMATRIX path_10_13_30
 f_13_30 q_10_13 -0.5
 q_10_13 f_13_30 -0.5
QCMATRIX path_10_13_31
 f_13_31 q_10_13 -0.5
 q_10_13 f_13_31 -0.5
QCMATRIX path_10_13_32
 f_13_32 q_10_13 -0.5
 q_10_13 f_13_32 -0.5
QCMATRIX path_10_13_33
 f_13_33 q_10_13 -0.5
 q_10_13 f_13_33 -0.5
QCMATRIX path_10_13_34
 f_13_34 q_10_13 -0.5
 q_10_13 f_13_34 -0.5
QCMATRIX path_10_13_35
 f_13_35 q_10_13 -0.5
 q_10_13 f_13_35 -0.5
QCMATRIX path_6_14_20
 f_14_20 q_6_14 -0.5
 q_6_14 f_14_20 -0.5
QCMATRIX path_6_14_21
 f_14_21 q_6_14 -0.5
 q_6_14 f_14_21 -0.5
QCMATRIX path_6_14_22
 f_14_22 q_6_14 -0.5
 q_6_14 f_14_22 -0.5
QCMATRIX path_6_14_23
 f_14_23 q_6_14 -0.5
 q_6_14 f_14_23 -0.5
QCMATRIX path_6_14_24
 f_14_24 q_6_14 -0.5
 q_6_14 f_14_24 -0.5
QCMATRIX path_6_14_25
 f_14_25 q_6_14 -0.5
 q_6_14 f_14_25 -0.5
QCMATRIX path_6_14_26
 f_14_26 q_6_14 -0.5
 q_6_14 f_14_26 -0.5
QCMATRIX path_6_14_27
 f_14_27 q_6_14 -0.5
 q_6_14 f_14_27 -0.5
QCMATRIX path_6_14_28
 f_14_28 q_6_14 -0.5
 q_6_14 f_14_28 -0.5
QCMATRIX path_6_14_29
 f_14_29 q_6_14 -0.5
 q_6_14 f_14_29 -0.5
QCMATRIX path_6_14_30
 f_14_30 q_6_14 -0.5
 q_6_14 f_14_30 -0.5
QCMATRIX path_6_14_31
 f_14_31 q_6_14 -0.5
 q_6_14 f_14_31 -0.5
QCMATRIX path_6_14_32
 f_14_32 q_6_14 -0.5
 q_6_14 f_14_32 -0.5
QCMATRIX path_6_14_33
 f_14_33 q_6_14 -0.5
 q_6_14 f_14_33 -0.5
QCMATRIX path_6_14_34
 f_14_34 q_6_14 -0.5
 q_6_14 f_14_34 -0.5
QCMATRIX path_6_14_35
 f_14_35 q_6_14 -0.5
 q_6_14 f_14_35 -0.5
QCMATRIX path_7_14_20
 f_14_20 q_7_14 -0.5
 q_7_14 f_14_20 -0.5
QCMATRIX path_7_14_21
 f_14_21 q_7_14 -0.5
 q_7_14 f_14_21 -0.5
QCMATRIX path_7_14_22
 f_14_22 q_7_14 -0.5
 q_7_14 f_14_22 -0.5
QCMATRIX path_7_14_23
 f_14_23 q_7_14 -0.5
 q_7_14 f_14_23 -0.5
QCMATRIX path_7_14_24
 f_14_24 q_7_14 -0.5
 q_7_14 f_14_24 -0.5
QCMATRIX path_7_14_25
 f_14_25 q_7_14 -0.5
 q_7_14 f_14_25 -0.5
QCMATRIX path_7_14_26
 f_14_26 q_7_14 -0.5
 q_7_14 f_14_26 -0.5
QCMATRIX path_7_14_27
 f_14_27 q_7_14 -0.5
 q_7_14 f_14_27 -0.5
QCMATRIX path_7_14_28
 f_14_28 q_7_14 -0.5
 q_7_14 f_14_28 -0.5
QCMATRIX path_7_14_29
 f_14_29 q_7_14 -0.5
 q_7_14 f_14_29 -0.5
QCMATRIX path_7_14_30
 f_14_30 q_7_14 -0.5
 q_7_14 f_14_30 -0.5
QCMATRIX path_7_14_31
 f_14_31 q_7_14 -0.5
 q_7_14 f_14_31 -0.5
QCMATRIX path_7_14_32
 f_14_32 q_7_14 -0.5
 q_7_14 f_14_32 -0.5
QCMATRIX path_7_14_33
 f_14_33 q_7_14 -0.5
 q_7_14 f_14_33 -0.5
QCMATRIX path_7_14_34
 f_14_34 q_7_14 -0.5
 q_7_14 f_14_34 -0.5
QCMATRIX path_7_14_35
 f_14_35 q_7_14 -0.5
 q_7_14 f_14_35 -0.5
QCMATRIX path_9_14_20
 f_14_20 q_9_14 -0.5
 q_9_14 f_14_20 -0.5
QCMATRIX path_9_14_21
 f_14_21 q_9_14 -0.5
 q_9_14 f_14_21 -0.5
QCMATRIX path_9_14_22
 f_14_22 q_9_14 -0.5
 q_9_14 f_14_22 -0.5
QCMATRIX path_9_14_23
 f_14_23 q_9_14 -0.5
 q_9_14 f_14_23 -0.5
QCMATRIX path_9_14_24
 f_14_24 q_9_14 -0.5
 q_9_14 f_14_24 -0.5
QCMATRIX path_9_14_25
 f_14_25 q_9_14 -0.5
 q_9_14 f_14_25 -0.5
QCMATRIX path_9_14_26
 f_14_26 q_9_14 -0.5
 q_9_14 f_14_26 -0.5
QCMATRIX path_9_14_27
 f_14_27 q_9_14 -0.5
 q_9_14 f_14_27 -0.5
QCMATRIX path_9_14_28
 f_14_28 q_9_14 -0.5
 q_9_14 f_14_28 -0.5
QCMATRIX path_9_14_29
 f_14_29 q_9_14 -0.5
 q_9_14 f_14_29 -0.5
QCMATRIX path_9_14_30
 f_14_30 q_9_14 -0.5
 q_9_14 f_14_30 -0.5
QCMATRIX path_9_14_31
 f_14_31 q_9_14 -0.5
 q_9_14 f_14_31 -0.5
QCMATRIX path_9_14_32
 f_14_32 q_9_14 -0.5
 q_9_14 f_14_32 -0.5
QCMATRIX path_9_14_33
 f_14_33 q_9_14 -0.5
 q_9_14 f_14_33 -0.5
QCMATRIX path_9_14_34
 f_14_34 q_9_14 -0.5
 q_9_14 f_14_34 -0.5
QCMATRIX path_9_14_35
 f_14_35 q_9_14 -0.5
 q_9_14 f_14_35 -0.5
QCMATRIX path_10_14_20
 f_14_20 q_10_14 -0.5
 q_10_14 f_14_20 -0.5
QCMATRIX path_10_14_21
 f_14_21 q_10_14 -0.5
 q_10_14 f_14_21 -0.5
QCMATRIX path_10_14_22
 f_14_22 q_10_14 -0.5
 q_10_14 f_14_22 -0.5
QCMATRIX path_10_14_23
 f_14_23 q_10_14 -0.5
 q_10_14 f_14_23 -0.5
QCMATRIX path_10_14_24
 f_14_24 q_10_14 -0.5
 q_10_14 f_14_24 -0.5
QCMATRIX path_10_14_25
 f_14_25 q_10_14 -0.5
 q_10_14 f_14_25 -0.5
QCMATRIX path_10_14_26
 f_14_26 q_10_14 -0.5
 q_10_14 f_14_26 -0.5
QCMATRIX path_10_14_27
 f_14_27 q_10_14 -0.5
 q_10_14 f_14_27 -0.5
QCMATRIX path_10_14_28
 f_14_28 q_10_14 -0.5
 q_10_14 f_14_28 -0.5
QCMATRIX path_10_14_29
 f_14_29 q_10_14 -0.5
 q_10_14 f_14_29 -0.5
QCMATRIX path_10_14_30
 f_14_30 q_10_14 -0.5
 q_10_14 f_14_30 -0.5
QCMATRIX path_10_14_31
 f_14_31 q_10_14 -0.5
 q_10_14 f_14_31 -0.5
QCMATRIX path_10_14_32
 f_14_32 q_10_14 -0.5
 q_10_14 f_14_32 -0.5
QCMATRIX path_10_14_33
 f_14_33 q_10_14 -0.5
 q_10_14 f_14_33 -0.5
QCMATRIX path_10_14_34
 f_14_34 q_10_14 -0.5
 q_10_14 f_14_34 -0.5
QCMATRIX path_10_14_35
 f_14_35 q_10_14 -0.5
 q_10_14 f_14_35 -0.5
QCMATRIX path_5_15_20
 f_15_20 q_5_15 -0.5
 q_5_15 f_15_20 -0.5
QCMATRIX path_5_15_21
 f_15_21 q_5_15 -0.5
 q_5_15 f_15_21 -0.5
QCMATRIX path_5_15_22
 f_15_22 q_5_15 -0.5
 q_5_15 f_15_22 -0.5
QCMATRIX path_5_15_23
 f_15_23 q_5_15 -0.5
 q_5_15 f_15_23 -0.5
QCMATRIX path_5_15_24
 f_15_24 q_5_15 -0.5
 q_5_15 f_15_24 -0.5
QCMATRIX path_5_15_25
 f_15_25 q_5_15 -0.5
 q_5_15 f_15_25 -0.5
QCMATRIX path_5_15_26
 f_15_26 q_5_15 -0.5
 q_5_15 f_15_26 -0.5
QCMATRIX path_5_15_27
 f_15_27 q_5_15 -0.5
 q_5_15 f_15_27 -0.5
QCMATRIX path_5_15_28
 f_15_28 q_5_15 -0.5
 q_5_15 f_15_28 -0.5
QCMATRIX path_5_15_29
 f_15_29 q_5_15 -0.5
 q_5_15 f_15_29 -0.5
QCMATRIX path_5_15_30
 f_15_30 q_5_15 -0.5
 q_5_15 f_15_30 -0.5
QCMATRIX path_5_15_31
 f_15_31 q_5_15 -0.5
 q_5_15 f_15_31 -0.5
QCMATRIX path_5_15_32
 f_15_32 q_5_15 -0.5
 q_5_15 f_15_32 -0.5
QCMATRIX path_5_15_33
 f_15_33 q_5_15 -0.5
 q_5_15 f_15_33 -0.5
QCMATRIX path_5_15_34
 f_15_34 q_5_15 -0.5
 q_5_15 f_15_34 -0.5
QCMATRIX path_5_15_35
 f_15_35 q_5_15 -0.5
 q_5_15 f_15_35 -0.5
QCMATRIX path_6_15_20
 f_15_20 q_6_15 -0.5
 q_6_15 f_15_20 -0.5
QCMATRIX path_6_15_21
 f_15_21 q_6_15 -0.5
 q_6_15 f_15_21 -0.5
QCMATRIX path_6_15_22
 f_15_22 q_6_15 -0.5
 q_6_15 f_15_22 -0.5
QCMATRIX path_6_15_23
 f_15_23 q_6_15 -0.5
 q_6_15 f_15_23 -0.5
QCMATRIX path_6_15_24
 f_15_24 q_6_15 -0.5
 q_6_15 f_15_24 -0.5
QCMATRIX path_6_15_25
 f_15_25 q_6_15 -0.5
 q_6_15 f_15_25 -0.5
QCMATRIX path_6_15_26
 f_15_26 q_6_15 -0.5
 q_6_15 f_15_26 -0.5
QCMATRIX path_6_15_27
 f_15_27 q_6_15 -0.5
 q_6_15 f_15_27 -0.5
QCMATRIX path_6_15_28
 f_15_28 q_6_15 -0.5
 q_6_15 f_15_28 -0.5
QCMATRIX path_6_15_29
 f_15_29 q_6_15 -0.5
 q_6_15 f_15_29 -0.5
QCMATRIX path_6_15_30
 f_15_30 q_6_15 -0.5
 q_6_15 f_15_30 -0.5
QCMATRIX path_6_15_31
 f_15_31 q_6_15 -0.5
 q_6_15 f_15_31 -0.5
QCMATRIX path_6_15_32
 f_15_32 q_6_15 -0.5
 q_6_15 f_15_32 -0.5
QCMATRIX path_6_15_33
 f_15_33 q_6_15 -0.5
 q_6_15 f_15_33 -0.5
QCMATRIX path_6_15_34
 f_15_34 q_6_15 -0.5
 q_6_15 f_15_34 -0.5
QCMATRIX path_6_15_35
 f_15_35 q_6_15 -0.5
 q_6_15 f_15_35 -0.5
QCMATRIX path_8_15_20
 f_15_20 q_8_15 -0.5
 q_8_15 f_15_20 -0.5
QCMATRIX path_8_15_21
 f_15_21 q_8_15 -0.5
 q_8_15 f_15_21 -0.5
QCMATRIX path_8_15_22
 f_15_22 q_8_15 -0.5
 q_8_15 f_15_22 -0.5
QCMATRIX path_8_15_23
 f_15_23 q_8_15 -0.5
 q_8_15 f_15_23 -0.5
QCMATRIX path_8_15_24
 f_15_24 q_8_15 -0.5
 q_8_15 f_15_24 -0.5
QCMATRIX path_8_15_25
 f_15_25 q_8_15 -0.5
 q_8_15 f_15_25 -0.5
QCMATRIX path_8_15_26
 f_15_26 q_8_15 -0.5
 q_8_15 f_15_26 -0.5
QCMATRIX path_8_15_27
 f_15_27 q_8_15 -0.5
 q_8_15 f_15_27 -0.5
QCMATRIX path_8_15_28
 f_15_28 q_8_15 -0.5
 q_8_15 f_15_28 -0.5
QCMATRIX path_8_15_29
 f_15_29 q_8_15 -0.5
 q_8_15 f_15_29 -0.5
QCMATRIX path_8_15_30
 f_15_30 q_8_15 -0.5
 q_8_15 f_15_30 -0.5
QCMATRIX path_8_15_31
 f_15_31 q_8_15 -0.5
 q_8_15 f_15_31 -0.5
QCMATRIX path_8_15_32
 f_15_32 q_8_15 -0.5
 q_8_15 f_15_32 -0.5
QCMATRIX path_8_15_33
 f_15_33 q_8_15 -0.5
 q_8_15 f_15_33 -0.5
QCMATRIX path_8_15_34
 f_15_34 q_8_15 -0.5
 q_8_15 f_15_34 -0.5
QCMATRIX path_8_15_35
 f_15_35 q_8_15 -0.5
 q_8_15 f_15_35 -0.5
QCMATRIX path_9_15_20
 f_15_20 q_9_15 -0.5
 q_9_15 f_15_20 -0.5
QCMATRIX path_9_15_21
 f_15_21 q_9_15 -0.5
 q_9_15 f_15_21 -0.5
QCMATRIX path_9_15_22
 f_15_22 q_9_15 -0.5
 q_9_15 f_15_22 -0.5
QCMATRIX path_9_15_23
 f_15_23 q_9_15 -0.5
 q_9_15 f_15_23 -0.5
QCMATRIX path_9_15_24
 f_15_24 q_9_15 -0.5
 q_9_15 f_15_24 -0.5
QCMATRIX path_9_15_25
 f_15_25 q_9_15 -0.5
 q_9_15 f_15_25 -0.5
QCMATRIX path_9_15_26
 f_15_26 q_9_15 -0.5
 q_9_15 f_15_26 -0.5
QCMATRIX path_9_15_27
 f_15_27 q_9_15 -0.5
 q_9_15 f_15_27 -0.5
QCMATRIX path_9_15_28
 f_15_28 q_9_15 -0.5
 q_9_15 f_15_28 -0.5
QCMATRIX path_9_15_29
 f_15_29 q_9_15 -0.5
 q_9_15 f_15_29 -0.5
QCMATRIX path_9_15_30
 f_15_30 q_9_15 -0.5
 q_9_15 f_15_30 -0.5
QCMATRIX path_9_15_31
 f_15_31 q_9_15 -0.5
 q_9_15 f_15_31 -0.5
QCMATRIX path_9_15_32
 f_15_32 q_9_15 -0.5
 q_9_15 f_15_32 -0.5
QCMATRIX path_9_15_33
 f_15_33 q_9_15 -0.5
 q_9_15 f_15_33 -0.5
QCMATRIX path_9_15_34
 f_15_34 q_9_15 -0.5
 q_9_15 f_15_34 -0.5
QCMATRIX path_9_15_35
 f_15_35 q_9_15 -0.5
 q_9_15 f_15_35 -0.5
QCMATRIX path_4_16_20
 f_16_20 q_4_16 -0.5
 q_4_16 f_16_20 -0.5
QCMATRIX path_4_16_21
 f_16_21 q_4_16 -0.5
 q_4_16 f_16_21 -0.5
QCMATRIX path_4_16_22
 f_16_22 q_4_16 -0.5
 q_4_16 f_16_22 -0.5
QCMATRIX path_4_16_23
 f_16_23 q_4_16 -0.5
 q_4_16 f_16_23 -0.5
QCMATRIX path_4_16_24
 f_16_24 q_4_16 -0.5
 q_4_16 f_16_24 -0.5
QCMATRIX path_4_16_25
 f_16_25 q_4_16 -0.5
 q_4_16 f_16_25 -0.5
QCMATRIX path_4_16_26
 f_16_26 q_4_16 -0.5
 q_4_16 f_16_26 -0.5
QCMATRIX path_4_16_27
 f_16_27 q_4_16 -0.5
 q_4_16 f_16_27 -0.5
QCMATRIX path_4_16_28
 f_16_28 q_4_16 -0.5
 q_4_16 f_16_28 -0.5
QCMATRIX path_4_16_29
 f_16_29 q_4_16 -0.5
 q_4_16 f_16_29 -0.5
QCMATRIX path_4_16_30
 f_16_30 q_4_16 -0.5
 q_4_16 f_16_30 -0.5
QCMATRIX path_4_16_31
 f_16_31 q_4_16 -0.5
 q_4_16 f_16_31 -0.5
QCMATRIX path_4_16_32
 f_16_32 q_4_16 -0.5
 q_4_16 f_16_32 -0.5
QCMATRIX path_4_16_33
 f_16_33 q_4_16 -0.5
 q_4_16 f_16_33 -0.5
QCMATRIX path_4_16_34
 f_16_34 q_4_16 -0.5
 q_4_16 f_16_34 -0.5
QCMATRIX path_4_16_35
 f_16_35 q_4_16 -0.5
 q_4_16 f_16_35 -0.5
QCMATRIX path_6_16_20
 f_16_20 q_6_16 -0.5
 q_6_16 f_16_20 -0.5
QCMATRIX path_6_16_21
 f_16_21 q_6_16 -0.5
 q_6_16 f_16_21 -0.5
QCMATRIX path_6_16_22
 f_16_22 q_6_16 -0.5
 q_6_16 f_16_22 -0.5
QCMATRIX path_6_16_23
 f_16_23 q_6_16 -0.5
 q_6_16 f_16_23 -0.5
QCMATRIX path_6_16_24
 f_16_24 q_6_16 -0.5
 q_6_16 f_16_24 -0.5
QCMATRIX path_6_16_25
 f_16_25 q_6_16 -0.5
 q_6_16 f_16_25 -0.5
QCMATRIX path_6_16_26
 f_16_26 q_6_16 -0.5
 q_6_16 f_16_26 -0.5
QCMATRIX path_6_16_27
 f_16_27 q_6_16 -0.5
 q_6_16 f_16_27 -0.5
QCMATRIX path_6_16_28
 f_16_28 q_6_16 -0.5
 q_6_16 f_16_28 -0.5
QCMATRIX path_6_16_29
 f_16_29 q_6_16 -0.5
 q_6_16 f_16_29 -0.5
QCMATRIX path_6_16_30
 f_16_30 q_6_16 -0.5
 q_6_16 f_16_30 -0.5
QCMATRIX path_6_16_31
 f_16_31 q_6_16 -0.5
 q_6_16 f_16_31 -0.5
QCMATRIX path_6_16_32
 f_16_32 q_6_16 -0.5
 q_6_16 f_16_32 -0.5
QCMATRIX path_6_16_33
 f_16_33 q_6_16 -0.5
 q_6_16 f_16_33 -0.5
QCMATRIX path_6_16_34
 f_16_34 q_6_16 -0.5
 q_6_16 f_16_34 -0.5
QCMATRIX path_6_16_35
 f_16_35 q_6_16 -0.5
 q_6_16 f_16_35 -0.5
QCMATRIX path_7_16_20
 f_16_20 q_7_16 -0.5
 q_7_16 f_16_20 -0.5
QCMATRIX path_7_16_21
 f_16_21 q_7_16 -0.5
 q_7_16 f_16_21 -0.5
QCMATRIX path_7_16_22
 f_16_22 q_7_16 -0.5
 q_7_16 f_16_22 -0.5
QCMATRIX path_7_16_23
 f_16_23 q_7_16 -0.5
 q_7_16 f_16_23 -0.5
QCMATRIX path_7_16_24
 f_16_24 q_7_16 -0.5
 q_7_16 f_16_24 -0.5
QCMATRIX path_7_16_25
 f_16_25 q_7_16 -0.5
 q_7_16 f_16_25 -0.5
QCMATRIX path_7_16_26
 f_16_26 q_7_16 -0.5
 q_7_16 f_16_26 -0.5
QCMATRIX path_7_16_27
 f_16_27 q_7_16 -0.5
 q_7_16 f_16_27 -0.5
QCMATRIX path_7_16_28
 f_16_28 q_7_16 -0.5
 q_7_16 f_16_28 -0.5
QCMATRIX path_7_16_29
 f_16_29 q_7_16 -0.5
 q_7_16 f_16_29 -0.5
QCMATRIX path_7_16_30
 f_16_30 q_7_16 -0.5
 q_7_16 f_16_30 -0.5
QCMATRIX path_7_16_31
 f_16_31 q_7_16 -0.5
 q_7_16 f_16_31 -0.5
QCMATRIX path_7_16_32
 f_16_32 q_7_16 -0.5
 q_7_16 f_16_32 -0.5
QCMATRIX path_7_16_33
 f_16_33 q_7_16 -0.5
 q_7_16 f_16_33 -0.5
QCMATRIX path_7_16_34
 f_16_34 q_7_16 -0.5
 q_7_16 f_16_34 -0.5
QCMATRIX path_7_16_35
 f_16_35 q_7_16 -0.5
 q_7_16 f_16_35 -0.5
QCMATRIX path_9_16_20
 f_16_20 q_9_16 -0.5
 q_9_16 f_16_20 -0.5
QCMATRIX path_9_16_21
 f_16_21 q_9_16 -0.5
 q_9_16 f_16_21 -0.5
QCMATRIX path_9_16_22
 f_16_22 q_9_16 -0.5
 q_9_16 f_16_22 -0.5
QCMATRIX path_9_16_23
 f_16_23 q_9_16 -0.5
 q_9_16 f_16_23 -0.5
QCMATRIX path_9_16_24
 f_16_24 q_9_16 -0.5
 q_9_16 f_16_24 -0.5
QCMATRIX path_9_16_25
 f_16_25 q_9_16 -0.5
 q_9_16 f_16_25 -0.5
QCMATRIX path_9_16_26
 f_16_26 q_9_16 -0.5
 q_9_16 f_16_26 -0.5
QCMATRIX path_9_16_27
 f_16_27 q_9_16 -0.5
 q_9_16 f_16_27 -0.5
QCMATRIX path_9_16_28
 f_16_28 q_9_16 -0.5
 q_9_16 f_16_28 -0.5
QCMATRIX path_9_16_29
 f_16_29 q_9_16 -0.5
 q_9_16 f_16_29 -0.5
QCMATRIX path_9_16_30
 f_16_30 q_9_16 -0.5
 q_9_16 f_16_30 -0.5
QCMATRIX path_9_16_31
 f_16_31 q_9_16 -0.5
 q_9_16 f_16_31 -0.5
QCMATRIX path_9_16_32
 f_16_32 q_9_16 -0.5
 q_9_16 f_16_32 -0.5
QCMATRIX path_9_16_33
 f_16_33 q_9_16 -0.5
 q_9_16 f_16_33 -0.5
QCMATRIX path_9_16_34
 f_16_34 q_9_16 -0.5
 q_9_16 f_16_34 -0.5
QCMATRIX path_9_16_35
 f_16_35 q_9_16 -0.5
 q_9_16 f_16_35 -0.5
QCMATRIX path_3_17_20
 f_17_20 q_3_17 -0.5
 q_3_17 f_17_20 -0.5
QCMATRIX path_3_17_21
 f_17_21 q_3_17 -0.5
 q_3_17 f_17_21 -0.5
QCMATRIX path_3_17_22
 f_17_22 q_3_17 -0.5
 q_3_17 f_17_22 -0.5
QCMATRIX path_3_17_23
 f_17_23 q_3_17 -0.5
 q_3_17 f_17_23 -0.5
QCMATRIX path_3_17_24
 f_17_24 q_3_17 -0.5
 q_3_17 f_17_24 -0.5
QCMATRIX path_3_17_25
 f_17_25 q_3_17 -0.5
 q_3_17 f_17_25 -0.5
QCMATRIX path_3_17_26
 f_17_26 q_3_17 -0.5
 q_3_17 f_17_26 -0.5
QCMATRIX path_3_17_27
 f_17_27 q_3_17 -0.5
 q_3_17 f_17_27 -0.5
QCMATRIX path_3_17_28
 f_17_28 q_3_17 -0.5
 q_3_17 f_17_28 -0.5
QCMATRIX path_3_17_29
 f_17_29 q_3_17 -0.5
 q_3_17 f_17_29 -0.5
QCMATRIX path_3_17_30
 f_17_30 q_3_17 -0.5
 q_3_17 f_17_30 -0.5
QCMATRIX path_3_17_31
 f_17_31 q_3_17 -0.5
 q_3_17 f_17_31 -0.5
QCMATRIX path_3_17_32
 f_17_32 q_3_17 -0.5
 q_3_17 f_17_32 -0.5
QCMATRIX path_3_17_33
 f_17_33 q_3_17 -0.5
 q_3_17 f_17_33 -0.5
QCMATRIX path_3_17_34
 f_17_34 q_3_17 -0.5
 q_3_17 f_17_34 -0.5
QCMATRIX path_3_17_35
 f_17_35 q_3_17 -0.5
 q_3_17 f_17_35 -0.5
QCMATRIX path_5_17_20
 f_17_20 q_5_17 -0.5
 q_5_17 f_17_20 -0.5
QCMATRIX path_5_17_21
 f_17_21 q_5_17 -0.5
 q_5_17 f_17_21 -0.5
QCMATRIX path_5_17_22
 f_17_22 q_5_17 -0.5
 q_5_17 f_17_22 -0.5
QCMATRIX path_5_17_23
 f_17_23 q_5_17 -0.5
 q_5_17 f_17_23 -0.5
QCMATRIX path_5_17_24
 f_17_24 q_5_17 -0.5
 q_5_17 f_17_24 -0.5
QCMATRIX path_5_17_25
 f_17_25 q_5_17 -0.5
 q_5_17 f_17_25 -0.5
QCMATRIX path_5_17_26
 f_17_26 q_5_17 -0.5
 q_5_17 f_17_26 -0.5
QCMATRIX path_5_17_27
 f_17_27 q_5_17 -0.5
 q_5_17 f_17_27 -0.5
QCMATRIX path_5_17_28
 f_17_28 q_5_17 -0.5
 q_5_17 f_17_28 -0.5
QCMATRIX path_5_17_29
 f_17_29 q_5_17 -0.5
 q_5_17 f_17_29 -0.5
QCMATRIX path_5_17_30
 f_17_30 q_5_17 -0.5
 q_5_17 f_17_30 -0.5
QCMATRIX path_5_17_31
 f_17_31 q_5_17 -0.5
 q_5_17 f_17_31 -0.5
QCMATRIX path_5_17_32
 f_17_32 q_5_17 -0.5
 q_5_17 f_17_32 -0.5
QCMATRIX path_5_17_33
 f_17_33 q_5_17 -0.5
 q_5_17 f_17_33 -0.5
QCMATRIX path_5_17_34
 f_17_34 q_5_17 -0.5
 q_5_17 f_17_34 -0.5
QCMATRIX path_5_17_35
 f_17_35 q_5_17 -0.5
 q_5_17 f_17_35 -0.5
QCMATRIX path_6_17_20
 f_17_20 q_6_17 -0.5
 q_6_17 f_17_20 -0.5
QCMATRIX path_6_17_21
 f_17_21 q_6_17 -0.5
 q_6_17 f_17_21 -0.5
QCMATRIX path_6_17_22
 f_17_22 q_6_17 -0.5
 q_6_17 f_17_22 -0.5
QCMATRIX path_6_17_23
 f_17_23 q_6_17 -0.5
 q_6_17 f_17_23 -0.5
QCMATRIX path_6_17_24
 f_17_24 q_6_17 -0.5
 q_6_17 f_17_24 -0.5
QCMATRIX path_6_17_25
 f_17_25 q_6_17 -0.5
 q_6_17 f_17_25 -0.5
QCMATRIX path_6_17_26
 f_17_26 q_6_17 -0.5
 q_6_17 f_17_26 -0.5
QCMATRIX path_6_17_27
 f_17_27 q_6_17 -0.5
 q_6_17 f_17_27 -0.5
QCMATRIX path_6_17_28
 f_17_28 q_6_17 -0.5
 q_6_17 f_17_28 -0.5
QCMATRIX path_6_17_29
 f_17_29 q_6_17 -0.5
 q_6_17 f_17_29 -0.5
QCMATRIX path_6_17_30
 f_17_30 q_6_17 -0.5
 q_6_17 f_17_30 -0.5
QCMATRIX path_6_17_31
 f_17_31 q_6_17 -0.5
 q_6_17 f_17_31 -0.5
QCMATRIX path_6_17_32
 f_17_32 q_6_17 -0.5
 q_6_17 f_17_32 -0.5
QCMATRIX path_6_17_33
 f_17_33 q_6_17 -0.5
 q_6_17 f_17_33 -0.5
QCMATRIX path_6_17_34
 f_17_34 q_6_17 -0.5
 q_6_17 f_17_34 -0.5
QCMATRIX path_6_17_35
 f_17_35 q_6_17 -0.5
 q_6_17 f_17_35 -0.5
QCMATRIX path_8_17_20
 f_17_20 q_8_17 -0.5
 q_8_17 f_17_20 -0.5
QCMATRIX path_8_17_21
 f_17_21 q_8_17 -0.5
 q_8_17 f_17_21 -0.5
QCMATRIX path_8_17_22
 f_17_22 q_8_17 -0.5
 q_8_17 f_17_22 -0.5
QCMATRIX path_8_17_23
 f_17_23 q_8_17 -0.5
 q_8_17 f_17_23 -0.5
QCMATRIX path_8_17_24
 f_17_24 q_8_17 -0.5
 q_8_17 f_17_24 -0.5
QCMATRIX path_8_17_25
 f_17_25 q_8_17 -0.5
 q_8_17 f_17_25 -0.5
QCMATRIX path_8_17_26
 f_17_26 q_8_17 -0.5
 q_8_17 f_17_26 -0.5
QCMATRIX path_8_17_27
 f_17_27 q_8_17 -0.5
 q_8_17 f_17_27 -0.5
QCMATRIX path_8_17_28
 f_17_28 q_8_17 -0.5
 q_8_17 f_17_28 -0.5
QCMATRIX path_8_17_29
 f_17_29 q_8_17 -0.5
 q_8_17 f_17_29 -0.5
QCMATRIX path_8_17_30
 f_17_30 q_8_17 -0.5
 q_8_17 f_17_30 -0.5
QCMATRIX path_8_17_31
 f_17_31 q_8_17 -0.5
 q_8_17 f_17_31 -0.5
QCMATRIX path_8_17_32
 f_17_32 q_8_17 -0.5
 q_8_17 f_17_32 -0.5
QCMATRIX path_8_17_33
 f_17_33 q_8_17 -0.5
 q_8_17 f_17_33 -0.5
QCMATRIX path_8_17_34
 f_17_34 q_8_17 -0.5
 q_8_17 f_17_34 -0.5
QCMATRIX path_8_17_35
 f_17_35 q_8_17 -0.5
 q_8_17 f_17_35 -0.5
QCMATRIX path_3_18_20
 f_18_20 q_3_18 -0.5
 q_3_18 f_18_20 -0.5
QCMATRIX path_3_18_21
 f_18_21 q_3_18 -0.5
 q_3_18 f_18_21 -0.5
QCMATRIX path_3_18_22
 f_18_22 q_3_18 -0.5
 q_3_18 f_18_22 -0.5
QCMATRIX path_3_18_23
 f_18_23 q_3_18 -0.5
 q_3_18 f_18_23 -0.5
QCMATRIX path_3_18_24
 f_18_24 q_3_18 -0.5
 q_3_18 f_18_24 -0.5
QCMATRIX path_3_18_25
 f_18_25 q_3_18 -0.5
 q_3_18 f_18_25 -0.5
QCMATRIX path_3_18_26
 f_18_26 q_3_18 -0.5
 q_3_18 f_18_26 -0.5
QCMATRIX path_3_18_27
 f_18_27 q_3_18 -0.5
 q_3_18 f_18_27 -0.5
QCMATRIX path_3_18_28
 f_18_28 q_3_18 -0.5
 q_3_18 f_18_28 -0.5
QCMATRIX path_3_18_29
 f_18_29 q_3_18 -0.5
 q_3_18 f_18_29 -0.5
QCMATRIX path_3_18_30
 f_18_30 q_3_18 -0.5
 q_3_18 f_18_30 -0.5
QCMATRIX path_3_18_31
 f_18_31 q_3_18 -0.5
 q_3_18 f_18_31 -0.5
QCMATRIX path_3_18_32
 f_18_32 q_3_18 -0.5
 q_3_18 f_18_32 -0.5
QCMATRIX path_3_18_33
 f_18_33 q_3_18 -0.5
 q_3_18 f_18_33 -0.5
QCMATRIX path_3_18_34
 f_18_34 q_3_18 -0.5
 q_3_18 f_18_34 -0.5
QCMATRIX path_3_18_35
 f_18_35 q_3_18 -0.5
 q_3_18 f_18_35 -0.5
QCMATRIX path_4_18_20
 f_18_20 q_4_18 -0.5
 q_4_18 f_18_20 -0.5
QCMATRIX path_4_18_21
 f_18_21 q_4_18 -0.5
 q_4_18 f_18_21 -0.5
QCMATRIX path_4_18_22
 f_18_22 q_4_18 -0.5
 q_4_18 f_18_22 -0.5
QCMATRIX path_4_18_23
 f_18_23 q_4_18 -0.5
 q_4_18 f_18_23 -0.5
QCMATRIX path_4_18_24
 f_18_24 q_4_18 -0.5
 q_4_18 f_18_24 -0.5
QCMATRIX path_4_18_25
 f_18_25 q_4_18 -0.5
 q_4_18 f_18_25 -0.5
QCMATRIX path_4_18_26
 f_18_26 q_4_18 -0.5
 q_4_18 f_18_26 -0.5
QCMATRIX path_4_18_27
 f_18_27 q_4_18 -0.5
 q_4_18 f_18_27 -0.5
QCMATRIX path_4_18_28
 f_18_28 q_4_18 -0.5
 q_4_18 f_18_28 -0.5
QCMATRIX path_4_18_29
 f_18_29 q_4_18 -0.5
 q_4_18 f_18_29 -0.5
QCMATRIX path_4_18_30
 f_18_30 q_4_18 -0.5
 q_4_18 f_18_30 -0.5
QCMATRIX path_4_18_31
 f_18_31 q_4_18 -0.5
 q_4_18 f_18_31 -0.5
QCMATRIX path_4_18_32
 f_18_32 q_4_18 -0.5
 q_4_18 f_18_32 -0.5
QCMATRIX path_4_18_33
 f_18_33 q_4_18 -0.5
 q_4_18 f_18_33 -0.5
QCMATRIX path_4_18_34
 f_18_34 q_4_18 -0.5
 q_4_18 f_18_34 -0.5
QCMATRIX path_4_18_35
 f_18_35 q_4_18 -0.5
 q_4_18 f_18_35 -0.5
QCMATRIX path_5_18_20
 f_18_20 q_5_18 -0.5
 q_5_18 f_18_20 -0.5
QCMATRIX path_5_18_21
 f_18_21 q_5_18 -0.5
 q_5_18 f_18_21 -0.5
QCMATRIX path_5_18_22
 f_18_22 q_5_18 -0.5
 q_5_18 f_18_22 -0.5
QCMATRIX path_5_18_23
 f_18_23 q_5_18 -0.5
 q_5_18 f_18_23 -0.5
QCMATRIX path_5_18_24
 f_18_24 q_5_18 -0.5
 q_5_18 f_18_24 -0.5
QCMATRIX path_5_18_25
 f_18_25 q_5_18 -0.5
 q_5_18 f_18_25 -0.5
QCMATRIX path_5_18_26
 f_18_26 q_5_18 -0.5
 q_5_18 f_18_26 -0.5
QCMATRIX path_5_18_27
 f_18_27 q_5_18 -0.5
 q_5_18 f_18_27 -0.5
QCMATRIX path_5_18_28
 f_18_28 q_5_18 -0.5
 q_5_18 f_18_28 -0.5
QCMATRIX path_5_18_29
 f_18_29 q_5_18 -0.5
 q_5_18 f_18_29 -0.5
QCMATRIX path_5_18_30
 f_18_30 q_5_18 -0.5
 q_5_18 f_18_30 -0.5
QCMATRIX path_5_18_31
 f_18_31 q_5_18 -0.5
 q_5_18 f_18_31 -0.5
QCMATRIX path_5_18_32
 f_18_32 q_5_18 -0.5
 q_5_18 f_18_32 -0.5
QCMATRIX path_5_18_33
 f_18_33 q_5_18 -0.5
 q_5_18 f_18_33 -0.5
QCMATRIX path_5_18_34
 f_18_34 q_5_18 -0.5
 q_5_18 f_18_34 -0.5
QCMATRIX path_5_18_35
 f_18_35 q_5_18 -0.5
 q_5_18 f_18_35 -0.5
QCMATRIX path_8_18_20
 f_18_20 q_8_18 -0.5
 q_8_18 f_18_20 -0.5
QCMATRIX path_8_18_21
 f_18_21 q_8_18 -0.5
 q_8_18 f_18_21 -0.5
QCMATRIX path_8_18_22
 f_18_22 q_8_18 -0.5
 q_8_18 f_18_22 -0.5
QCMATRIX path_8_18_23
 f_18_23 q_8_18 -0.5
 q_8_18 f_18_23 -0.5
QCMATRIX path_8_18_24
 f_18_24 q_8_18 -0.5
 q_8_18 f_18_24 -0.5
QCMATRIX path_8_18_25
 f_18_25 q_8_18 -0.5
 q_8_18 f_18_25 -0.5
QCMATRIX path_8_18_26
 f_18_26 q_8_18 -0.5
 q_8_18 f_18_26 -0.5
QCMATRIX path_8_18_27
 f_18_27 q_8_18 -0.5
 q_8_18 f_18_27 -0.5
QCMATRIX path_8_18_28
 f_18_28 q_8_18 -0.5
 q_8_18 f_18_28 -0.5
QCMATRIX path_8_18_29
 f_18_29 q_8_18 -0.5
 q_8_18 f_18_29 -0.5
QCMATRIX path_8_18_30
 f_18_30 q_8_18 -0.5
 q_8_18 f_18_30 -0.5
QCMATRIX path_8_18_31
 f_18_31 q_8_18 -0.5
 q_8_18 f_18_31 -0.5
QCMATRIX path_8_18_32
 f_18_32 q_8_18 -0.5
 q_8_18 f_18_32 -0.5
QCMATRIX path_8_18_33
 f_18_33 q_8_18 -0.5
 q_8_18 f_18_33 -0.5
QCMATRIX path_8_18_34
 f_18_34 q_8_18 -0.5
 q_8_18 f_18_34 -0.5
QCMATRIX path_8_18_35
 f_18_35 q_8_18 -0.5
 q_8_18 f_18_35 -0.5
QCMATRIX path_2_19_20
 f_19_20 q_2_19 -0.5
 q_2_19 f_19_20 -0.5
QCMATRIX path_2_19_21
 f_19_21 q_2_19 -0.5
 q_2_19 f_19_21 -0.5
QCMATRIX path_2_19_22
 f_19_22 q_2_19 -0.5
 q_2_19 f_19_22 -0.5
QCMATRIX path_2_19_23
 f_19_23 q_2_19 -0.5
 q_2_19 f_19_23 -0.5
QCMATRIX path_2_19_24
 f_19_24 q_2_19 -0.5
 q_2_19 f_19_24 -0.5
QCMATRIX path_2_19_25
 f_19_25 q_2_19 -0.5
 q_2_19 f_19_25 -0.5
QCMATRIX path_2_19_26
 f_19_26 q_2_19 -0.5
 q_2_19 f_19_26 -0.5
QCMATRIX path_2_19_27
 f_19_27 q_2_19 -0.5
 q_2_19 f_19_27 -0.5
QCMATRIX path_2_19_28
 f_19_28 q_2_19 -0.5
 q_2_19 f_19_28 -0.5
QCMATRIX path_2_19_29
 f_19_29 q_2_19 -0.5
 q_2_19 f_19_29 -0.5
QCMATRIX path_2_19_30
 f_19_30 q_2_19 -0.5
 q_2_19 f_19_30 -0.5
QCMATRIX path_2_19_31
 f_19_31 q_2_19 -0.5
 q_2_19 f_19_31 -0.5
QCMATRIX path_2_19_32
 f_19_32 q_2_19 -0.5
 q_2_19 f_19_32 -0.5
QCMATRIX path_2_19_33
 f_19_33 q_2_19 -0.5
 q_2_19 f_19_33 -0.5
QCMATRIX path_2_19_34
 f_19_34 q_2_19 -0.5
 q_2_19 f_19_34 -0.5
QCMATRIX path_2_19_35
 f_19_35 q_2_19 -0.5
 q_2_19 f_19_35 -0.5
QCMATRIX path_3_19_20
 f_19_20 q_3_19 -0.5
 q_3_19 f_19_20 -0.5
QCMATRIX path_3_19_21
 f_19_21 q_3_19 -0.5
 q_3_19 f_19_21 -0.5
QCMATRIX path_3_19_22
 f_19_22 q_3_19 -0.5
 q_3_19 f_19_22 -0.5
QCMATRIX path_3_19_23
 f_19_23 q_3_19 -0.5
 q_3_19 f_19_23 -0.5
QCMATRIX path_3_19_24
 f_19_24 q_3_19 -0.5
 q_3_19 f_19_24 -0.5
QCMATRIX path_3_19_25
 f_19_25 q_3_19 -0.5
 q_3_19 f_19_25 -0.5
QCMATRIX path_3_19_26
 f_19_26 q_3_19 -0.5
 q_3_19 f_19_26 -0.5
QCMATRIX path_3_19_27
 f_19_27 q_3_19 -0.5
 q_3_19 f_19_27 -0.5
QCMATRIX path_3_19_28
 f_19_28 q_3_19 -0.5
 q_3_19 f_19_28 -0.5
QCMATRIX path_3_19_29
 f_19_29 q_3_19 -0.5
 q_3_19 f_19_29 -0.5
QCMATRIX path_3_19_30
 f_19_30 q_3_19 -0.5
 q_3_19 f_19_30 -0.5
QCMATRIX path_3_19_31
 f_19_31 q_3_19 -0.5
 q_3_19 f_19_31 -0.5
QCMATRIX path_3_19_32
 f_19_32 q_3_19 -0.5
 q_3_19 f_19_32 -0.5
QCMATRIX path_3_19_33
 f_19_33 q_3_19 -0.5
 q_3_19 f_19_33 -0.5
QCMATRIX path_3_19_34
 f_19_34 q_3_19 -0.5
 q_3_19 f_19_34 -0.5
QCMATRIX path_3_19_35
 f_19_35 q_3_19 -0.5
 q_3_19 f_19_35 -0.5
QCMATRIX path_4_19_20
 f_19_20 q_4_19 -0.5
 q_4_19 f_19_20 -0.5
QCMATRIX path_4_19_21
 f_19_21 q_4_19 -0.5
 q_4_19 f_19_21 -0.5
QCMATRIX path_4_19_22
 f_19_22 q_4_19 -0.5
 q_4_19 f_19_22 -0.5
QCMATRIX path_4_19_23
 f_19_23 q_4_19 -0.5
 q_4_19 f_19_23 -0.5
QCMATRIX path_4_19_24
 f_19_24 q_4_19 -0.5
 q_4_19 f_19_24 -0.5
QCMATRIX path_4_19_25
 f_19_25 q_4_19 -0.5
 q_4_19 f_19_25 -0.5
QCMATRIX path_4_19_26
 f_19_26 q_4_19 -0.5
 q_4_19 f_19_26 -0.5
QCMATRIX path_4_19_27
 f_19_27 q_4_19 -0.5
 q_4_19 f_19_27 -0.5
QCMATRIX path_4_19_28
 f_19_28 q_4_19 -0.5
 q_4_19 f_19_28 -0.5
QCMATRIX path_4_19_29
 f_19_29 q_4_19 -0.5
 q_4_19 f_19_29 -0.5
QCMATRIX path_4_19_30
 f_19_30 q_4_19 -0.5
 q_4_19 f_19_30 -0.5
QCMATRIX path_4_19_31
 f_19_31 q_4_19 -0.5
 q_4_19 f_19_31 -0.5
QCMATRIX path_4_19_32
 f_19_32 q_4_19 -0.5
 q_4_19 f_19_32 -0.5
QCMATRIX path_4_19_33
 f_19_33 q_4_19 -0.5
 q_4_19 f_19_33 -0.5
QCMATRIX path_4_19_34
 f_19_34 q_4_19 -0.5
 q_4_19 f_19_34 -0.5
QCMATRIX path_4_19_35
 f_19_35 q_4_19 -0.5
 q_4_19 f_19_35 -0.5
QCMATRIX path_7_19_20
 f_19_20 q_7_19 -0.5
 q_7_19 f_19_20 -0.5
QCMATRIX path_7_19_21
 f_19_21 q_7_19 -0.5
 q_7_19 f_19_21 -0.5
QCMATRIX path_7_19_22
 f_19_22 q_7_19 -0.5
 q_7_19 f_19_22 -0.5
QCMATRIX path_7_19_23
 f_19_23 q_7_19 -0.5
 q_7_19 f_19_23 -0.5
QCMATRIX path_7_19_24
 f_19_24 q_7_19 -0.5
 q_7_19 f_19_24 -0.5
QCMATRIX path_7_19_25
 f_19_25 q_7_19 -0.5
 q_7_19 f_19_25 -0.5
QCMATRIX path_7_19_26
 f_19_26 q_7_19 -0.5
 q_7_19 f_19_26 -0.5
QCMATRIX path_7_19_27
 f_19_27 q_7_19 -0.5
 q_7_19 f_19_27 -0.5
QCMATRIX path_7_19_28
 f_19_28 q_7_19 -0.5
 q_7_19 f_19_28 -0.5
QCMATRIX path_7_19_29
 f_19_29 q_7_19 -0.5
 q_7_19 f_19_29 -0.5
QCMATRIX path_7_19_30
 f_19_30 q_7_19 -0.5
 q_7_19 f_19_30 -0.5
QCMATRIX path_7_19_31
 f_19_31 q_7_19 -0.5
 q_7_19 f_19_31 -0.5
QCMATRIX path_7_19_32
 f_19_32 q_7_19 -0.5
 q_7_19 f_19_32 -0.5
QCMATRIX path_7_19_33
 f_19_33 q_7_19 -0.5
 q_7_19 f_19_33 -0.5
QCMATRIX path_7_19_34
 f_19_34 q_7_19 -0.5
 q_7_19 f_19_34 -0.5
QCMATRIX path_7_19_35
 f_19_35 q_7_19 -0.5
 q_7_19 f_19_35 -0.5
ENDATA
