* SANKHYA pooling instance foulds5, Q-formulation (#516).
* GENERATED by bench/runners/pooling_models.py from data/pooling/instances/foulds5.json; do not edit.
* Data: Alfaki and Haugland, standard pooling instance Foulds5.gms
* (sha256 b27a569d88890b6eb378f0475e8710dbf4ba38a1f68a33a37993a071e899aa95).
* Source paper and published optimum: data/pooling/reference.json.
* Minimize total arc cost. Quadratic rows use QCMATRIX (full symmetric, no 1/2).
*
* Q-formulation (Ben-Tal, Eiger and Gershovitz 1994), path flows as columns
NAME foulds5_q
ROWS
 N cost
 L src_1
 L src_2
 L src_3
 L src_4
 L src_5
 L src_6
 L src_7
 L src_8
 L src_9
 L src_10
 L src_11
 L dem_16
 L dem_17
 L dem_18
 L dem_19
 L dem_20
 L dem_21
 L dem_22
 L dem_23
 L dem_24
 L dem_25
 L dem_26
 L dem_27
 L dem_28
 L dem_29
 L dem_30
 L dem_31
 E sumq_12
 L cap_12
 E sumq_13
 L cap_13
 E sumq_14
 L cap_14
 E sumq_15
 L cap_15
 L tq_16_1
 L tq_17_1
 L tq_18_1
 L tq_19_1
 L tq_20_1
 L tq_21_1
 L tq_22_1
 L tq_23_1
 L tq_24_1
 L tq_25_1
 L tq_26_1
 L tq_27_1
 L tq_28_1
 L tq_29_1
 L tq_30_1
 L tq_31_1
 E path_1_12_16
 E path_1_12_17
 E path_1_12_18
 E path_1_12_19
 E path_1_12_20
 E path_1_12_21
 E path_1_12_22
 E path_1_12_23
 E path_1_12_24
 E path_1_12_25
 E path_1_12_26
 E path_1_12_27
 E path_1_12_28
 E path_1_12_29
 E path_1_12_30
 E path_1_12_31
 E path_2_12_16
 E path_2_12_17
 E path_2_12_18
 E path_2_12_19
 E path_2_12_20
 E path_2_12_21
 E path_2_12_22
 E path_2_12_23
 E path_2_12_24
 E path_2_12_25
 E path_2_12_26
 E path_2_12_27
 E path_2_12_28
 E path_2_12_29
 E path_2_12_30
 E path_2_12_31
 E path_3_12_16
 E path_3_12_17
 E path_3_12_18
 E path_3_12_19
 E path_3_12_20
 E path_3_12_21
 E path_3_12_22
 E path_3_12_23
 E path_3_12_24
 E path_3_12_25
 E path_3_12_26
 E path_3_12_27
 E path_3_12_28
 E path_3_12_29
 E path_3_12_30
 E path_3_12_31
 E path_4_12_16
 E path_4_12_17
 E path_4_12_18
 E path_4_12_19
 E path_4_12_20
 E path_4_12_21
 E path_4_12_22
 E path_4_12_23
 E path_4_12_24
 E path_4_12_25
 E path_4_12_26
 E path_4_12_27
 E path_4_12_28
 E path_4_12_29
 E path_4_12_30
 E path_4_12_31
 E path_8_12_16
 E path_8_12_17
 E path_8_12_18
 E path_8_12_19
 E path_8_12_20
 E path_8_12_21
 E path_8_12_22
 E path_8_12_23
 E path_8_12_24
 E path_8_12_25
 E path_8_12_26
 E path_8_12_27
 E path_8_12_28
 E path_8_12_29
 E path_8_12_30
 E path_8_12_31
 E path_9_12_16
 E path_9_12_17
 E path_9_12_18
 E path_9_12_19
 E path_9_12_20
 E path_9_12_21
 E path_9_12_22
 E path_9_12_23
 E path_9_12_24
 E path_9_12_25
 E path_9_12_26
 E path_9_12_27
 E path_9_12_28
 E path_9_12_29
 E path_9_12_30
 E path_9_12_31
 E path_10_12_16
 E path_10_12_17
 E path_10_12_18
 E path_10_12_19
 E path_10_12_20
 E path_10_12_21
 E path_10_12_22
 E path_10_12_23
 E path_10_12_24
 E path_10_12_25
 E path_10_12_26
 E path_10_12_27
 E path_10_12_28
 E path_10_12_29
 E path_10_12_30
 E path_10_12_31
 E path_11_12_16
 E path_11_12_17
 E path_11_12_18
 E path_11_12_19
 E path_11_12_20
 E path_11_12_21
 E path_11_12_22
 E path_11_12_23
 E path_11_12_24
 E path_11_12_25
 E path_11_12_26
 E path_11_12_27
 E path_11_12_28
 E path_11_12_29
 E path_11_12_30
 E path_11_12_31
 E path_2_13_16
 E path_2_13_17
 E path_2_13_18
 E path_2_13_19
 E path_2_13_20
 E path_2_13_21
 E path_2_13_22
 E path_2_13_23
 E path_2_13_24
 E path_2_13_25
 E path_2_13_26
 E path_2_13_27
 E path_2_13_28
 E path_2_13_29
 E path_2_13_30
 E path_2_13_31
 E path_3_13_16
 E path_3_13_17
 E path_3_13_18
 E path_3_13_19
 E path_3_13_20
 E path_3_13_21
 E path_3_13_22
 E path_3_13_23
 E path_3_13_24
 E path_3_13_25
 E path_3_13_26
 E path_3_13_27
 E path_3_13_28
 E path_3_13_29
 E path_3_13_30
 E path_3_13_31
 E path_4_13_16
 E path_4_13_17
 E path_4_13_18
 E path_4_13_19
 E path_4_13_20
 E path_4_13_21
 E path_4_13_22
 E path_4_13_23
 E path_4_13_24
 E path_4_13_25
 E path_4_13_26
 E path_4_13_27
 E path_4_13_28
 E path_4_13_29
 E path_4_13_30
 E path_4_13_31
 E path_5_13_16
 E path_5_13_17
 E path_5_13_18
 E path_5_13_19
 E path_5_13_20
 E path_5_13_21
 E path_5_13_22
 E path_5_13_23
 E path_5_13_24
 E path_5_13_25
 E path_5_13_26
 E path_5_13_27
 E path_5_13_28
 E path_5_13_29
 E path_5_13_30
 E path_5_13_31
 E path_7_13_16
 E path_7_13_17
 E path_7_13_18
 E path_7_13_19
 E path_7_13_20
 E path_7_13_21
 E path_7_13_22
 E path_7_13_23
 E path_7_13_24
 E path_7_13_25
 E path_7_13_26
 E path_7_13_27
 E path_7_13_28
 E path_7_13_29
 E path_7_13_30
 E path_7_13_31
 E path_8_13_16
 E path_8_13_17
 E path_8_13_18
 E path_8_13_19
 E path_8_13_20
 E path_8_13_21
 E path_8_13_22
 E path_8_13_23
 E path_8_13_24
 E path_8_13_25
 E path_8_13_26
 E path_8_13_27
 E path_8_13_28
 E path_8_13_29
 E path_8_13_30
 E path_8_13_31
 E path_9_13_16
 E path_9_13_17
 E path_9_13_18
 E path_9_13_19
 E path_9_13_20
 E path_9_13_21
 E path_9_13_22
 E path_9_13_23
 E path_9_13_24
 E path_9_13_25
 E path_9_13_26
 E path_9_13_27
 E path_9_13_28
 E path_9_13_29
 E path_9_13_30
 E path_9_13_31
 E path_10_13_16
 E path_10_13_17
 E path_10_13_18
 E path_10_13_19
 E path_10_13_20
 E path_10_13_21
 E path_10_13_22
 E path_10_13_23
 E path_10_13_24
 E path_10_13_25
 E path_10_13_26
 E path_10_13_27
 E path_10_13_28
 E path_10_13_29
 E path_10_13_30
 E path_10_13_31
 E path_1_14_16
 E path_1_14_17
 E path_1_14_18
 E path_1_14_19
 E path_1_14_20
 E path_1_14_21
 E path_1_14_22
 E path_1_14_23
 E path_1_14_24
 E path_1_14_25
 E path_1_14_26
 E path_1_14_27
 E path_1_14_28
 E path_1_14_29
 E path_1_14_30
 E path_1_14_31
 E path_2_14_16
 E path_2_14_17
 E path_2_14_18
 E path_2_14_19
 E path_2_14_20
 E path_2_14_21
 E path_2_14_22
 E path_2_14_23
 E path_2_14_24
 E path_2_14_25
 E path_2_14_26
 E path_2_14_27
 E path_2_14_28
 E path_2_14_29
 E path_2_14_30
 E path_2_14_31
 E path_3_14_16
 E path_3_14_17
 E path_3_14_18
 E path_3_14_19
 E path_3_14_20
 E path_3_14_21
 E path_3_14_22
 E path_3_14_23
 E path_3_14_24
 E path_3_14_25
 E path_3_14_26
 E path_3_14_27
 E path_3_14_28
 E path_3_14_29
 E path_3_14_30
 E path_3_14_31
 E path_4_14_16
 E path_4_14_17
 E path_4_14_18
 E path_4_14_19
 E path_4_14_20
 E path_4_14_21
 E path_4_14_22
 E path_4_14_23
 E path_4_14_24
 E path_4_14_25
 E path_4_14_26
 E path_4_14_27
 E path_4_14_28
 E path_4_14_29
 E path_4_14_30
 E path_4_14_31
 E path_5_14_16
 E path_5_14_17
 E path_5_14_18
 E path_5_14_19
 E path_5_14_20
 E path_5_14_21
 E path_5_14_22
 E path_5_14_23
 E path_5_14_24
 E path_5_14_25
 E path_5_14_26
 E path_5_14_27
 E path_5_14_28
 E path_5_14_29
 E path_5_14_30
 E path_5_14_31
 E path_6_14_16
 E path_6_14_17
 E path_6_14_18
 E path_6_14_19
 E path_6_14_20
 E path_6_14_21
 E path_6_14_22
 E path_6_14_23
 E path_6_14_24
 E path_6_14_25
 E path_6_14_26
 E path_6_14_27
 E path_6_14_28
 E path_6_14_29
 E path_6_14_30
 E path_6_14_31
 E path_7_14_16
 E path_7_14_17
 E path_7_14_18
 E path_7_14_19
 E path_7_14_20
 E path_7_14_21
 E path_7_14_22
 E path_7_14_23
 E path_7_14_24
 E path_7_14_25
 E path_7_14_26
 E path_7_14_27
 E path_7_14_28
 E path_7_14_29
 E path_7_14_30
 E path_7_14_31
 E path_8_14_16
 E path_8_14_17
 E path_8_14_18
 E path_8_14_19
 E path_8_14_20
 E path_8_14_21
 E path_8_14_22
 E path_8_14_23
 E path_8_14_24
 E path_8_14_25
 E path_8_14_26
 E path_8_14_27
 E path_8_14_28
 E path_8_14_29
 E path_8_14_30
 E path_8_14_31
 E path_4_15_16
 E path_4_15_17
 E path_4_15_18
 E path_4_15_19
 E path_4_15_20
 E path_4_15_21
 E path_4_15_22
 E path_4_15_23
 E path_4_15_24
 E path_4_15_25
 E path_4_15_26
 E path_4_15_27
 E path_4_15_28
 E path_4_15_29
 E path_4_15_30
 E path_4_15_31
 E path_5_15_16
 E path_5_15_17
 E path_5_15_18
 E path_5_15_19
 E path_5_15_20
 E path_5_15_21
 E path_5_15_22
 E path_5_15_23
 E path_5_15_24
 E path_5_15_25
 E path_5_15_26
 E path_5_15_27
 E path_5_15_28
 E path_5_15_29
 E path_5_15_30
 E path_5_15_31
 E path_6_15_16
 E path_6_15_17
 E path_6_15_18
 E path_6_15_19
 E path_6_15_20
 E path_6_15_21
 E path_6_15_22
 E path_6_15_23
 E path_6_15_24
 E path_6_15_25
 E path_6_15_26
 E path_6_15_27
 E path_6_15_28
 E path_6_15_29
 E path_6_15_30
 E path_6_15_31
 E path_7_15_16
 E path_7_15_17
 E path_7_15_18
 E path_7_15_19
 E path_7_15_20
 E path_7_15_21
 E path_7_15_22
 E path_7_15_23
 E path_7_15_24
 E path_7_15_25
 E path_7_15_26
 E path_7_15_27
 E path_7_15_28
 E path_7_15_29
 E path_7_15_30
 E path_7_15_31
 E path_8_15_16
 E path_8_15_17
 E path_8_15_18
 E path_8_15_19
 E path_8_15_20
 E path_8_15_21
 E path_8_15_22
 E path_8_15_23
 E path_8_15_24
 E path_8_15_25
 E path_8_15_26
 E path_8_15_27
 E path_8_15_28
 E path_8_15_29
 E path_8_15_30
 E path_8_15_31
 E path_9_15_16
 E path_9_15_17
 E path_9_15_18
 E path_9_15_19
 E path_9_15_20
 E path_9_15_21
 E path_9_15_22
 E path_9_15_23
 E path_9_15_24
 E path_9_15_25
 E path_9_15_26
 E path_9_15_27
 E path_9_15_28
 E path_9_15_29
 E path_9_15_30
 E path_9_15_31
 E path_10_15_16
 E path_10_15_17
 E path_10_15_18
 E path_10_15_19
 E path_10_15_20
 E path_10_15_21
 E path_10_15_22
 E path_10_15_23
 E path_10_15_24
 E path_10_15_25
 E path_10_15_26
 E path_10_15_27
 E path_10_15_28
 E path_10_15_29
 E path_10_15_30
 E path_10_15_31
 E path_11_15_16
 E path_11_15_17
 E path_11_15_18
 E path_11_15_19
 E path_11_15_20
 E path_11_15_21
 E path_11_15_22
 E path_11_15_23
 E path_11_15_24
 E path_11_15_25
 E path_11_15_26
 E path_11_15_27
 E path_11_15_28
 E path_11_15_29
 E path_11_15_30
 E path_11_15_31
COLUMNS
 q_1_12 sumq_12 1
 q_2_12 sumq_12 1
 q_3_12 sumq_12 1
 q_4_12 sumq_12 1
 q_8_12 sumq_12 1
 q_9_12 sumq_12 1
 q_10_12 sumq_12 1
 q_11_12 sumq_12 1
 q_2_13 sumq_13 1
 q_3_13 sumq_13 1
 q_4_13 sumq_13 1
 q_5_13 sumq_13 1
 q_7_13 sumq_13 1
 q_8_13 sumq_13 1
 q_9_13 sumq_13 1
 q_10_13 sumq_13 1
 q_1_14 sumq_14 1
 q_2_14 sumq_14 1
 q_3_14 sumq_14 1
 q_4_14 sumq_14 1
 q_5_14 sumq_14 1
 q_6_14 sumq_14 1
 q_7_14 sumq_14 1
 q_8_14 sumq_14 1
 q_4_15 sumq_15 1
 q_5_15 sumq_15 1
 q_6_15 sumq_15 1
 q_7_15 sumq_15 1
 q_8_15 sumq_15 1
 q_9_15 sumq_15 1
 q_10_15 sumq_15 1
 q_11_15 sumq_15 1
 f_12_16 cost -20
 f_12_16 dem_16 1
 f_12_16 cap_12 1
 f_12_16 tq_16_1 -1.05
 f_12_17 cost -19.5
 f_12_17 dem_17 1
 f_12_17 cap_12 1
 f_12_17 tq_17_1 -1.1
 f_12_18 cost -19
 f_12_18 dem_18 1
 f_12_18 cap_12 1
 f_12_18 tq_18_1 -1.15
 f_12_19 cost -18.5
 f_12_19 dem_19 1
 f_12_19 cap_12 1
 f_12_19 tq_19_1 -1.2
 f_12_20 cost -18
 f_12_20 dem_20 1
 f_12_20 cap_12 1
 f_12_20 tq_20_1 -1.25
 f_12_21 cost -17.5
 f_12_21 dem_21 1
 f_12_21 cap_12 1
 f_12_21 tq_21_1 -1.3
 f_12_22 cost -17
 f_12_22 dem_22 1
 f_12_22 cap_12 1
 f_12_22 tq_22_1 -1.35
 f_12_23 cost -16.5
 f_12_23 dem_23 1
 f_12_23 cap_12 1
 f_12_23 tq_23_1 -1.4
 f_12_24 cost -16
 f_12_24 dem_24 1
 f_12_24 cap_12 1
 f_12_24 tq_24_1 -1.45
 f_12_25 cost -15.5
 f_12_25 dem_25 1
 f_12_25 cap_12 1
 f_12_25 tq_25_1 -1.5
 f_12_26 cost -15
 f_12_26 dem_26 1
 f_12_26 cap_12 1
 f_12_26 tq_26_1 -1.55
 f_12_27 cost -14.5
 f_12_27 dem_27 1
 f_12_27 cap_12 1
 f_12_27 tq_27_1 -1.6
 f_12_28 cost -14
 f_12_28 dem_28 1
 f_12_28 cap_12 1
 f_12_28 tq_28_1 -1.65
 f_12_29 cost -13.5
 f_12_29 dem_29 1
 f_12_29 cap_12 1
 f_12_29 tq_29_1 -1.7
 f_12_30 cost -13
 f_12_30 dem_30 1
 f_12_30 cap_12 1
 f_12_30 tq_30_1 -1.75
 f_12_31 cost -12.5
 f_12_31 dem_31 1
 f_12_31 cap_12 1
 f_12_31 tq_31_1 -1.8
 f_13_16 cost -20
 f_13_16 dem_16 1
 f_13_16 cap_13 1
 f_13_16 tq_16_1 -1.05
 f_13_17 cost -19.5
 f_13_17 dem_17 1
 f_13_17 cap_13 1
 f_13_17 tq_17_1 -1.1
 f_13_18 cost -19
 f_13_18 dem_18 1
 f_13_18 cap_13 1
 f_13_18 tq_18_1 -1.15
 f_13_19 cost -18.5
 f_13_19 dem_19 1
 f_13_19 cap_13 1
 f_13_19 tq_19_1 -1.2
 f_13_20 cost -18
 f_13_20 dem_20 1
 f_13_20 cap_13 1
 f_13_20 tq_20_1 -1.25
 f_13_21 cost -17.5
 f_13_21 dem_21 1
 f_13_21 cap_13 1
 f_13_21 tq_21_1 -1.3
 f_13_22 cost -17
 f_13_22 dem_22 1
 f_13_22 cap_13 1
 f_13_22 tq_22_1 -1.35
 f_13_23 cost -16.5
 f_13_23 dem_23 1
 f_13_23 cap_13 1
 f_13_23 tq_23_1 -1.4
 f_13_24 cost -16
 f_13_24 dem_24 1
 f_13_24 cap_13 1
 f_13_24 tq_24_1 -1.45
 f_13_25 cost -15.5
 f_13_25 dem_25 1
 f_13_25 cap_13 1
 f_13_25 tq_25_1 -1.5
 f_13_26 cost -15
 f_13_26 dem_26 1
 f_13_26 cap_13 1
 f_13_26 tq_26_1 -1.55
 f_13_27 cost -14.5
 f_13_27 dem_27 1
 f_13_27 cap_13 1
 f_13_27 tq_27_1 -1.6
 f_13_28 cost -14
 f_13_28 dem_28 1
 f_13_28 cap_13 1
 f_13_28 tq_28_1 -1.65
 f_13_29 cost -13.5
 f_13_29 dem_29 1
 f_13_29 cap_13 1
 f_13_29 tq_29_1 -1.7
 f_13_30 cost -13
 f_13_30 dem_30 1
 f_13_30 cap_13 1
 f_13_30 tq_30_1 -1.75
 f_13_31 cost -12.5
 f_13_31 dem_31 1
 f_13_31 cap_13 1
 f_13_31 tq_31_1 -1.8
 f_14_16 cost -20
 f_14_16 dem_16 1
 f_14_16 cap_14 1
 f_14_16 tq_16_1 -1.05
 f_14_17 cost -19.5
 f_14_17 dem_17 1
 f_14_17 cap_14 1
 f_14_17 tq_17_1 -1.1
 f_14_18 cost -19
 f_14_18 dem_18 1
 f_14_18 cap_14 1
 f_14_18 tq_18_1 -1.15
 f_14_19 cost -18.5
 f_14_19 dem_19 1
 f_14_19 cap_14 1
 f_14_19 tq_19_1 -1.2
 f_14_20 cost -18
 f_14_20 dem_20 1
 f_14_20 cap_14 1
 f_14_20 tq_20_1 -1.25
 f_14_21 cost -17.5
 f_14_21 dem_21 1
 f_14_21 cap_14 1
 f_14_21 tq_21_1 -1.3
 f_14_22 cost -17
 f_14_22 dem_22 1
 f_14_22 cap_14 1
 f_14_22 tq_22_1 -1.35
 f_14_23 cost -16.5
 f_14_23 dem_23 1
 f_14_23 cap_14 1
 f_14_23 tq_23_1 -1.4
 f_14_24 cost -16
 f_14_24 dem_24 1
 f_14_24 cap_14 1
 f_14_24 tq_24_1 -1.45
 f_14_25 cost -15.5
 f_14_25 dem_25 1
 f_14_25 cap_14 1
 f_14_25 tq_25_1 -1.5
 f_14_26 cost -15
 f_14_26 dem_26 1
 f_14_26 cap_14 1
 f_14_26 tq_26_1 -1.55
 f_14_27 cost -14.5
 f_14_27 dem_27 1
 f_14_27 cap_14 1
 f_14_27 tq_27_1 -1.6
 f_14_28 cost -14
 f_14_28 dem_28 1
 f_14_28 cap_14 1
 f_14_28 tq_28_1 -1.65
 f_14_29 cost -13.5
 f_14_29 dem_29 1
 f_14_29 cap_14 1
 f_14_29 tq_29_1 -1.7
 f_14_30 cost -13
 f_14_30 dem_30 1
 f_14_30 cap_14 1
 f_14_30 tq_30_1 -1.75
 f_14_31 cost -12.5
 f_14_31 dem_31 1
 f_14_31 cap_14 1
 f_14_31 tq_31_1 -1.8
 f_15_16 cost -20
 f_15_16 dem_16 1
 f_15_16 cap_15 1
 f_15_16 tq_16_1 -1.05
 f_15_17 cost -19.5
 f_15_17 dem_17 1
 f_15_17 cap_15 1
 f_15_17 tq_17_1 -1.1
 f_15_18 cost -19
 f_15_18 dem_18 1
 f_15_18 cap_15 1
 f_15_18 tq_18_1 -1.15
 f_15_19 cost -18.5
 f_15_19 dem_19 1
 f_15_19 cap_15 1
 f_15_19 tq_19_1 -1.2
 f_15_20 cost -18
 f_15_20 dem_20 1
 f_15_20 cap_15 1
 f_15_20 tq_20_1 -1.25
 f_15_21 cost -17.5
 f_15_21 dem_21 1
 f_15_21 cap_15 1
 f_15_21 tq_21_1 -1.3
 f_15_22 cost -17
 f_15_22 dem_22 1
 f_15_22 cap_15 1
 f_15_22 tq_22_1 -1.35
 f_15_23 cost -16.5
 f_15_23 dem_23 1
 f_15_23 cap_15 1
 f_15_23 tq_23_1 -1.4
 f_15_24 cost -16
 f_15_24 dem_24 1
 f_15_24 cap_15 1
 f_15_24 tq_24_1 -1.45
 f_15_25 cost -15.5
 f_15_25 dem_25 1
 f_15_25 cap_15 1
 f_15_25 tq_25_1 -1.5
 f_15_26 cost -15
 f_15_26 dem_26 1
 f_15_26 cap_15 1
 f_15_26 tq_26_1 -1.55
 f_15_27 cost -14.5
 f_15_27 dem_27 1
 f_15_27 cap_15 1
 f_15_27 tq_27_1 -1.6
 f_15_28 cost -14
 f_15_28 dem_28 1
 f_15_28 cap_15 1
 f_15_28 tq_28_1 -1.65
 f_15_29 cost -13.5
 f_15_29 dem_29 1
 f_15_29 cap_15 1
 f_15_29 tq_29_1 -1.7
 f_15_30 cost -13
 f_15_30 dem_30 1
 f_15_30 cap_15 1
 f_15_30 tq_30_1 -1.75
 f_15_31 cost -12.5
 f_15_31 dem_31 1
 f_15_31 cap_15 1
 f_15_31 tq_31_1 -1.8
 v_1_12_16 cost 10
 v_1_12_16 src_1 1
 v_1_12_16 tq_16_1 2
 v_1_12_16 path_1_12_16 1
 v_1_12_17 cost 10
 v_1_12_17 src_1 1
 v_1_12_17 tq_17_1 2
 v_1_12_17 path_1_12_17 1
 v_1_12_18 cost 10
 v_1_12_18 src_1 1
 v_1_12_18 tq_18_1 2
 v_1_12_18 path_1_12_18 1
 v_1_12_19 cost 10
 v_1_12_19 src_1 1
 v_1_12_19 tq_19_1 2
 v_1_12_19 path_1_12_19 1
 v_1_12_20 cost 10
 v_1_12_20 src_1 1
 v_1_12_20 tq_20_1 2
 v_1_12_20 path_1_12_20 1
 v_1_12_21 cost 10
 v_1_12_21 src_1 1
 v_1_12_21 tq_21_1 2
 v_1_12_21 path_1_12_21 1
 v_1_12_22 cost 10
 v_1_12_22 src_1 1
 v_1_12_22 tq_22_1 2
 v_1_12_22 path_1_12_22 1
 v_1_12_23 cost 10
 v_1_12_23 src_1 1
 v_1_12_23 tq_23_1 2
 v_1_12_23 path_1_12_23 1
 v_1_12_24 cost 10
 v_1_12_24 src_1 1
 v_1_12_24 tq_24_1 2
 v_1_12_24 path_1_12_24 1
 v_1_12_25 cost 10
 v_1_12_25 src_1 1
 v_1_12_25 tq_25_1 2
 v_1_12_25 path_1_12_25 1
 v_1_12_26 cost 10
 v_1_12_26 src_1 1
 v_1_12_26 tq_26_1 2
 v_1_12_26 path_1_12_26 1
 v_1_12_27 cost 10
 v_1_12_27 src_1 1
 v_1_12_27 tq_27_1 2
 v_1_12_27 path_1_12_27 1
 v_1_12_28 cost 10
 v_1_12_28 src_1 1
 v_1_12_28 tq_28_1 2
 v_1_12_28 path_1_12_28 1
 v_1_12_29 cost 10
 v_1_12_29 src_1 1
 v_1_12_29 tq_29_1 2
 v_1_12_29 path_1_12_29 1
 v_1_12_30 cost 10
 v_1_12_30 src_1 1
 v_1_12_30 tq_30_1 2
 v_1_12_30 path_1_12_30 1
 v_1_12_31 cost 10
 v_1_12_31 src_1 1
 v_1_12_31 tq_31_1 2
 v_1_12_31 path_1_12_31 1
 v_2_12_16 cost 11
 v_2_12_16 src_2 1
 v_2_12_16 tq_16_1 1.9
 v_2_12_16 path_2_12_16 1
 v_2_12_17 cost 11
 v_2_12_17 src_2 1
 v_2_12_17 tq_17_1 1.9
 v_2_12_17 path_2_12_17 1
 v_2_12_18 cost 11
 v_2_12_18 src_2 1
 v_2_12_18 tq_18_1 1.9
 v_2_12_18 path_2_12_18 1
 v_2_12_19 cost 11
 v_2_12_19 src_2 1
 v_2_12_19 tq_19_1 1.9
 v_2_12_19 path_2_12_19 1
 v_2_12_20 cost 11
 v_2_12_20 src_2 1
 v_2_12_20 tq_20_1 1.9
 v_2_12_20 path_2_12_20 1
 v_2_12_21 cost 11
 v_2_12_21 src_2 1
 v_2_12_21 tq_21_1 1.9
 v_2_12_21 path_2_12_21 1
 v_2_12_22 cost 11
 v_2_12_22 src_2 1
 v_2_12_22 tq_22_1 1.9
 v_2_12_22 path_2_12_22 1
 v_2_12_23 cost 11
 v_2_12_23 src_2 1
 v_2_12_23 tq_23_1 1.9
 v_2_12_23 path_2_12_23 1
 v_2_12_24 cost 11
 v_2_12_24 src_2 1
 v_2_12_24 tq_24_1 1.9
 v_2_12_24 path_2_12_24 1
 v_2_12_25 cost 11
 v_2_12_25 src_2 1
 v_2_12_25 tq_25_1 1.9
 v_2_12_25 path_2_12_25 1
 v_2_12_26 cost 11
 v_2_12_26 src_2 1
 v_2_12_26 tq_26_1 1.9
 v_2_12_26 path_2_12_26 1
 v_2_12_27 cost 11
 v_2_12_27 src_2 1
 v_2_12_27 tq_27_1 1.9
 v_2_12_27 path_2_12_27 1
 v_2_12_28 cost 11
 v_2_12_28 src_2 1
 v_2_12_28 tq_28_1 1.9
 v_2_12_28 path_2_12_28 1
 v_2_12_29 cost 11
 v_2_12_29 src_2 1
 v_2_12_29 tq_29_1 1.9
 v_2_12_29 path_2_12_29 1
 v_2_12_30 cost 11
 v_2_12_30 src_2 1
 v_2_12_30 tq_30_1 1.9
 v_2_12_30 path_2_12_30 1
 v_2_12_31 cost 11
 v_2_12_31 src_2 1
 v_2_12_31 tq_31_1 1.9
 v_2_12_31 path_2_12_31 1
 v_3_12_16 cost 12
 v_3_12_16 src_3 1
 v_3_12_16 tq_16_1 1.8
 v_3_12_16 path_3_12_16 1
 v_3_12_17 cost 12
 v_3_12_17 src_3 1
 v_3_12_17 tq_17_1 1.8
 v_3_12_17 path_3_12_17 1
 v_3_12_18 cost 12
 v_3_12_18 src_3 1
 v_3_12_18 tq_18_1 1.8
 v_3_12_18 path_3_12_18 1
 v_3_12_19 cost 12
 v_3_12_19 src_3 1
 v_3_12_19 tq_19_1 1.8
 v_3_12_19 path_3_12_19 1
 v_3_12_20 cost 12
 v_3_12_20 src_3 1
 v_3_12_20 tq_20_1 1.8
 v_3_12_20 path_3_12_20 1
 v_3_12_21 cost 12
 v_3_12_21 src_3 1
 v_3_12_21 tq_21_1 1.8
 v_3_12_21 path_3_12_21 1
 v_3_12_22 cost 12
 v_3_12_22 src_3 1
 v_3_12_22 tq_22_1 1.8
 v_3_12_22 path_3_12_22 1
 v_3_12_23 cost 12
 v_3_12_23 src_3 1
 v_3_12_23 tq_23_1 1.8
 v_3_12_23 path_3_12_23 1
 v_3_12_24 cost 12
 v_3_12_24 src_3 1
 v_3_12_24 tq_24_1 1.8
 v_3_12_24 path_3_12_24 1
 v_3_12_25 cost 12
 v_3_12_25 src_3 1
 v_3_12_25 tq_25_1 1.8
 v_3_12_25 path_3_12_25 1
 v_3_12_26 cost 12
 v_3_12_26 src_3 1
 v_3_12_26 tq_26_1 1.8
 v_3_12_26 path_3_12_26 1
 v_3_12_27 cost 12
 v_3_12_27 src_3 1
 v_3_12_27 tq_27_1 1.8
 v_3_12_27 path_3_12_27 1
 v_3_12_28 cost 12
 v_3_12_28 src_3 1
 v_3_12_28 tq_28_1 1.8
 v_3_12_28 path_3_12_28 1
 v_3_12_29 cost 12
 v_3_12_29 src_3 1
 v_3_12_29 tq_29_1 1.8
 v_3_12_29 path_3_12_29 1
 v_3_12_30 cost 12
 v_3_12_30 src_3 1
 v_3_12_30 tq_30_1 1.8
 v_3_12_30 path_3_12_30 1
 v_3_12_31 cost 12
 v_3_12_31 src_3 1
 v_3_12_31 tq_31_1 1.8
 v_3_12_31 path_3_12_31 1
 v_4_12_16 cost 13
 v_4_12_16 src_4 1
 v_4_12_16 tq_16_1 1.7
 v_4_12_16 path_4_12_16 1
 v_4_12_17 cost 13
 v_4_12_17 src_4 1
 v_4_12_17 tq_17_1 1.7
 v_4_12_17 path_4_12_17 1
 v_4_12_18 cost 13
 v_4_12_18 src_4 1
 v_4_12_18 tq_18_1 1.7
 v_4_12_18 path_4_12_18 1
 v_4_12_19 cost 13
 v_4_12_19 src_4 1
 v_4_12_19 tq_19_1 1.7
 v_4_12_19 path_4_12_19 1
 v_4_12_20 cost 13
 v_4_12_20 src_4 1
 v_4_12_20 tq_20_1 1.7
 v_4_12_20 path_4_12_20 1
 v_4_12_21 cost 13
 v_4_12_21 src_4 1
 v_4_12_21 tq_21_1 1.7
 v_4_12_21 path_4_12_21 1
 v_4_12_22 cost 13
 v_4_12_22 src_4 1
 v_4_12_22 tq_22_1 1.7
 v_4_12_22 path_4_12_22 1
 v_4_12_23 cost 13
 v_4_12_23 src_4 1
 v_4_12_23 tq_23_1 1.7
 v_4_12_23 path_4_12_23 1
 v_4_12_24 cost 13
 v_4_12_24 src_4 1
 v_4_12_24 tq_24_1 1.7
 v_4_12_24 path_4_12_24 1
 v_4_12_25 cost 13
 v_4_12_25 src_4 1
 v_4_12_25 tq_25_1 1.7
 v_4_12_25 path_4_12_25 1
 v_4_12_26 cost 13
 v_4_12_26 src_4 1
 v_4_12_26 tq_26_1 1.7
 v_4_12_26 path_4_12_26 1
 v_4_12_27 cost 13
 v_4_12_27 src_4 1
 v_4_12_27 tq_27_1 1.7
 v_4_12_27 path_4_12_27 1
 v_4_12_28 cost 13
 v_4_12_28 src_4 1
 v_4_12_28 tq_28_1 1.7
 v_4_12_28 path_4_12_28 1
 v_4_12_29 cost 13
 v_4_12_29 src_4 1
 v_4_12_29 tq_29_1 1.7
 v_4_12_29 path_4_12_29 1
 v_4_12_30 cost 13
 v_4_12_30 src_4 1
 v_4_12_30 tq_30_1 1.7
 v_4_12_30 path_4_12_30 1
 v_4_12_31 cost 13
 v_4_12_31 src_4 1
 v_4_12_31 tq_31_1 1.7
 v_4_12_31 path_4_12_31 1
 v_8_12_16 cost 17
 v_8_12_16 src_8 1
 v_8_12_16 tq_16_1 1.3
 v_8_12_16 path_8_12_16 1
 v_8_12_17 cost 17
 v_8_12_17 src_8 1
 v_8_12_17 tq_17_1 1.3
 v_8_12_17 path_8_12_17 1
 v_8_12_18 cost 17
 v_8_12_18 src_8 1
 v_8_12_18 tq_18_1 1.3
 v_8_12_18 path_8_12_18 1
 v_8_12_19 cost 17
 v_8_12_19 src_8 1
 v_8_12_19 tq_19_1 1.3
 v_8_12_19 path_8_12_19 1
 v_8_12_20 cost 17
 v_8_12_20 src_8 1
 v_8_12_20 tq_20_1 1.3
 v_8_12_20 path_8_12_20 1
 v_8_12_21 cost 17
 v_8_12_21 src_8 1
 v_8_12_21 tq_21_1 1.3
 v_8_12_21 path_8_12_21 1
 v_8_12_22 cost 17
 v_8_12_22 src_8 1
 v_8_12_22 tq_22_1 1.3
 v_8_12_22 path_8_12_22 1
 v_8_12_23 cost 17
 v_8_12_23 src_8 1
 v_8_12_23 tq_23_1 1.3
 v_8_12_23 path_8_12_23 1
 v_8_12_24 cost 17
 v_8_12_24 src_8 1
 v_8_12_24 tq_24_1 1.3
 v_8_12_24 path_8_12_24 1
 v_8_12_25 cost 17
 v_8_12_25 src_8 1
 v_8_12_25 tq_25_1 1.3
 v_8_12_25 path_8_12_25 1
 v_8_12_26 cost 17
 v_8_12_26 src_8 1
 v_8_12_26 tq_26_1 1.3
 v_8_12_26 path_8_12_26 1
 v_8_12_27 cost 17
 v_8_12_27 src_8 1
 v_8_12_27 tq_27_1 1.3
 v_8_12_27 path_8_12_27 1
 v_8_12_28 cost 17
 v_8_12_28 src_8 1
 v_8_12_28 tq_28_1 1.3
 v_8_12_28 path_8_12_28 1
 v_8_12_29 cost 17
 v_8_12_29 src_8 1
 v_8_12_29 tq_29_1 1.3
 v_8_12_29 path_8_12_29 1
 v_8_12_30 cost 17
 v_8_12_30 src_8 1
 v_8_12_30 tq_30_1 1.3
 v_8_12_30 path_8_12_30 1
 v_8_12_31 cost 17
 v_8_12_31 src_8 1
 v_8_12_31 tq_31_1 1.3
 v_8_12_31 path_8_12_31 1
 v_9_12_16 cost 18
 v_9_12_16 src_9 1
 v_9_12_16 tq_16_1 1.2
 v_9_12_16 path_9_12_16 1
 v_9_12_17 cost 18
 v_9_12_17 src_9 1
 v_9_12_17 tq_17_1 1.2
 v_9_12_17 path_9_12_17 1
 v_9_12_18 cost 18
 v_9_12_18 src_9 1
 v_9_12_18 tq_18_1 1.2
 v_9_12_18 path_9_12_18 1
 v_9_12_19 cost 18
 v_9_12_19 src_9 1
 v_9_12_19 tq_19_1 1.2
 v_9_12_19 path_9_12_19 1
 v_9_12_20 cost 18
 v_9_12_20 src_9 1
 v_9_12_20 tq_20_1 1.2
 v_9_12_20 path_9_12_20 1
 v_9_12_21 cost 18
 v_9_12_21 src_9 1
 v_9_12_21 tq_21_1 1.2
 v_9_12_21 path_9_12_21 1
 v_9_12_22 cost 18
 v_9_12_22 src_9 1
 v_9_12_22 tq_22_1 1.2
 v_9_12_22 path_9_12_22 1
 v_9_12_23 cost 18
 v_9_12_23 src_9 1
 v_9_12_23 tq_23_1 1.2
 v_9_12_23 path_9_12_23 1
 v_9_12_24 cost 18
 v_9_12_24 src_9 1
 v_9_12_24 tq_24_1 1.2
 v_9_12_24 path_9_12_24 1
 v_9_12_25 cost 18
 v_9_12_25 src_9 1
 v_9_12_25 tq_25_1 1.2
 v_9_12_25 path_9_12_25 1
 v_9_12_26 cost 18
 v_9_12_26 src_9 1
 v_9_12_26 tq_26_1 1.2
 v_9_12_26 path_9_12_26 1
 v_9_12_27 cost 18
 v_9_12_27 src_9 1
 v_9_12_27 tq_27_1 1.2
 v_9_12_27 path_9_12_27 1
 v_9_12_28 cost 18
 v_9_12_28 src_9 1
 v_9_12_28 tq_28_1 1.2
 v_9_12_28 path_9_12_28 1
 v_9_12_29 cost 18
 v_9_12_29 src_9 1
 v_9_12_29 tq_29_1 1.2
 v_9_12_29 path_9_12_29 1
 v_9_12_30 cost 18
 v_9_12_30 src_9 1
 v_9_12_30 tq_30_1 1.2
 v_9_12_30 path_9_12_30 1
 v_9_12_31 cost 18
 v_9_12_31 src_9 1
 v_9_12_31 tq_31_1 1.2
 v_9_12_31 path_9_12_31 1
 v_10_12_16 cost 19
 v_10_12_16 src_10 1
 v_10_12_16 tq_16_1 1.1
 v_10_12_16 path_10_12_16 1
 v_10_12_17 cost 19
 v_10_12_17 src_10 1
 v_10_12_17 tq_17_1 1.1
 v_10_12_17 path_10_12_17 1
 v_10_12_18 cost 19
 v_10_12_18 src_10 1
 v_10_12_18 tq_18_1 1.1
 v_10_12_18 path_10_12_18 1
 v_10_12_19 cost 19
 v_10_12_19 src_10 1
 v_10_12_19 tq_19_1 1.1
 v_10_12_19 path_10_12_19 1
 v_10_12_20 cost 19
 v_10_12_20 src_10 1
 v_10_12_20 tq_20_1 1.1
 v_10_12_20 path_10_12_20 1
 v_10_12_21 cost 19
 v_10_12_21 src_10 1
 v_10_12_21 tq_21_1 1.1
 v_10_12_21 path_10_12_21 1
 v_10_12_22 cost 19
 v_10_12_22 src_10 1
 v_10_12_22 tq_22_1 1.1
 v_10_12_22 path_10_12_22 1
 v_10_12_23 cost 19
 v_10_12_23 src_10 1
 v_10_12_23 tq_23_1 1.1
 v_10_12_23 path_10_12_23 1
 v_10_12_24 cost 19
 v_10_12_24 src_10 1
 v_10_12_24 tq_24_1 1.1
 v_10_12_24 path_10_12_24 1
 v_10_12_25 cost 19
 v_10_12_25 src_10 1
 v_10_12_25 tq_25_1 1.1
 v_10_12_25 path_10_12_25 1
 v_10_12_26 cost 19
 v_10_12_26 src_10 1
 v_10_12_26 tq_26_1 1.1
 v_10_12_26 path_10_12_26 1
 v_10_12_27 cost 19
 v_10_12_27 src_10 1
 v_10_12_27 tq_27_1 1.1
 v_10_12_27 path_10_12_27 1
 v_10_12_28 cost 19
 v_10_12_28 src_10 1
 v_10_12_28 tq_28_1 1.1
 v_10_12_28 path_10_12_28 1
 v_10_12_29 cost 19
 v_10_12_29 src_10 1
 v_10_12_29 tq_29_1 1.1
 v_10_12_29 path_10_12_29 1
 v_10_12_30 cost 19
 v_10_12_30 src_10 1
 v_10_12_30 tq_30_1 1.1
 v_10_12_30 path_10_12_30 1
 v_10_12_31 cost 19
 v_10_12_31 src_10 1
 v_10_12_31 tq_31_1 1.1
 v_10_12_31 path_10_12_31 1
 v_11_12_16 cost 20
 v_11_12_16 src_11 1
 v_11_12_16 tq_16_1 1
 v_11_12_16 path_11_12_16 1
 v_11_12_17 cost 20
 v_11_12_17 src_11 1
 v_11_12_17 tq_17_1 1
 v_11_12_17 path_11_12_17 1
 v_11_12_18 cost 20
 v_11_12_18 src_11 1
 v_11_12_18 tq_18_1 1
 v_11_12_18 path_11_12_18 1
 v_11_12_19 cost 20
 v_11_12_19 src_11 1
 v_11_12_19 tq_19_1 1
 v_11_12_19 path_11_12_19 1
 v_11_12_20 cost 20
 v_11_12_20 src_11 1
 v_11_12_20 tq_20_1 1
 v_11_12_20 path_11_12_20 1
 v_11_12_21 cost 20
 v_11_12_21 src_11 1
 v_11_12_21 tq_21_1 1
 v_11_12_21 path_11_12_21 1
 v_11_12_22 cost 20
 v_11_12_22 src_11 1
 v_11_12_22 tq_22_1 1
 v_11_12_22 path_11_12_22 1
 v_11_12_23 cost 20
 v_11_12_23 src_11 1
 v_11_12_23 tq_23_1 1
 v_11_12_23 path_11_12_23 1
 v_11_12_24 cost 20
 v_11_12_24 src_11 1
 v_11_12_24 tq_24_1 1
 v_11_12_24 path_11_12_24 1
 v_11_12_25 cost 20
 v_11_12_25 src_11 1
 v_11_12_25 tq_25_1 1
 v_11_12_25 path_11_12_25 1
 v_11_12_26 cost 20
 v_11_12_26 src_11 1
 v_11_12_26 tq_26_1 1
 v_11_12_26 path_11_12_26 1
 v_11_12_27 cost 20
 v_11_12_27 src_11 1
 v_11_12_27 tq_27_1 1
 v_11_12_27 path_11_12_27 1
 v_11_12_28 cost 20
 v_11_12_28 src_11 1
 v_11_12_28 tq_28_1 1
 v_11_12_28 path_11_12_28 1
 v_11_12_29 cost 20
 v_11_12_29 src_11 1
 v_11_12_29 tq_29_1 1
 v_11_12_29 path_11_12_29 1
 v_11_12_30 cost 20
 v_11_12_30 src_11 1
 v_11_12_30 tq_30_1 1
 v_11_12_30 path_11_12_30 1
 v_11_12_31 cost 20
 v_11_12_31 src_11 1
 v_11_12_31 tq_31_1 1
 v_11_12_31 path_11_12_31 1
 v_2_13_16 cost 11
 v_2_13_16 src_2 1
 v_2_13_16 tq_16_1 1.9
 v_2_13_16 path_2_13_16 1
 v_2_13_17 cost 11
 v_2_13_17 src_2 1
 v_2_13_17 tq_17_1 1.9
 v_2_13_17 path_2_13_17 1
 v_2_13_18 cost 11
 v_2_13_18 src_2 1
 v_2_13_18 tq_18_1 1.9
 v_2_13_18 path_2_13_18 1
 v_2_13_19 cost 11
 v_2_13_19 src_2 1
 v_2_13_19 tq_19_1 1.9
 v_2_13_19 path_2_13_19 1
 v_2_13_20 cost 11
 v_2_13_20 src_2 1
 v_2_13_20 tq_20_1 1.9
 v_2_13_20 path_2_13_20 1
 v_2_13_21 cost 11
 v_2_13_21 src_2 1
 v_2_13_21 tq_21_1 1.9
 v_2_13_21 path_2_13_21 1
 v_2_13_22 cost 11
 v_2_13_22 src_2 1
 v_2_13_22 tq_22_1 1.9
 v_2_13_22 path_2_13_22 1
 v_2_13_23 cost 11
 v_2_13_23 src_2 1
 v_2_13_23 tq_23_1 1.9
 v_2_13_23 path_2_13_23 1
 v_2_13_24 cost 11
 v_2_13_24 src_2 1
 v_2_13_24 tq_24_1 1.9
 v_2_13_24 path_2_13_24 1
 v_2_13_25 cost 11
 v_2_13_25 src_2 1
 v_2_13_25 tq_25_1 1.9
 v_2_13_25 path_2_13_25 1
 v_2_13_26 cost 11
 v_2_13_26 src_2 1
 v_2_13_26 tq_26_1 1.9
 v_2_13_26 path_2_13_26 1
 v_2_13_27 cost 11
 v_2_13_27 src_2 1
 v_2_13_27 tq_27_1 1.9
 v_2_13_27 path_2_13_27 1
 v_2_13_28 cost 11
 v_2_13_28 src_2 1
 v_2_13_28 tq_28_1 1.9
 v_2_13_28 path_2_13_28 1
 v_2_13_29 cost 11
 v_2_13_29 src_2 1
 v_2_13_29 tq_29_1 1.9
 v_2_13_29 path_2_13_29 1
 v_2_13_30 cost 11
 v_2_13_30 src_2 1
 v_2_13_30 tq_30_1 1.9
 v_2_13_30 path_2_13_30 1
 v_2_13_31 cost 11
 v_2_13_31 src_2 1
 v_2_13_31 tq_31_1 1.9
 v_2_13_31 path_2_13_31 1
 v_3_13_16 cost 12
 v_3_13_16 src_3 1
 v_3_13_16 tq_16_1 1.8
 v_3_13_16 path_3_13_16 1
 v_3_13_17 cost 12
 v_3_13_17 src_3 1
 v_3_13_17 tq_17_1 1.8
 v_3_13_17 path_3_13_17 1
 v_3_13_18 cost 12
 v_3_13_18 src_3 1
 v_3_13_18 tq_18_1 1.8
 v_3_13_18 path_3_13_18 1
 v_3_13_19 cost 12
 v_3_13_19 src_3 1
 v_3_13_19 tq_19_1 1.8
 v_3_13_19 path_3_13_19 1
 v_3_13_20 cost 12
 v_3_13_20 src_3 1
 v_3_13_20 tq_20_1 1.8
 v_3_13_20 path_3_13_20 1
 v_3_13_21 cost 12
 v_3_13_21 src_3 1
 v_3_13_21 tq_21_1 1.8
 v_3_13_21 path_3_13_21 1
 v_3_13_22 cost 12
 v_3_13_22 src_3 1
 v_3_13_22 tq_22_1 1.8
 v_3_13_22 path_3_13_22 1
 v_3_13_23 cost 12
 v_3_13_23 src_3 1
 v_3_13_23 tq_23_1 1.8
 v_3_13_23 path_3_13_23 1
 v_3_13_24 cost 12
 v_3_13_24 src_3 1
 v_3_13_24 tq_24_1 1.8
 v_3_13_24 path_3_13_24 1
 v_3_13_25 cost 12
 v_3_13_25 src_3 1
 v_3_13_25 tq_25_1 1.8
 v_3_13_25 path_3_13_25 1
 v_3_13_26 cost 12
 v_3_13_26 src_3 1
 v_3_13_26 tq_26_1 1.8
 v_3_13_26 path_3_13_26 1
 v_3_13_27 cost 12
 v_3_13_27 src_3 1
 v_3_13_27 tq_27_1 1.8
 v_3_13_27 path_3_13_27 1
 v_3_13_28 cost 12
 v_3_13_28 src_3 1
 v_3_13_28 tq_28_1 1.8
 v_3_13_28 path_3_13_28 1
 v_3_13_29 cost 12
 v_3_13_29 src_3 1
 v_3_13_29 tq_29_1 1.8
 v_3_13_29 path_3_13_29 1
 v_3_13_30 cost 12
 v_3_13_30 src_3 1
 v_3_13_30 tq_30_1 1.8
 v_3_13_30 path_3_13_30 1
 v_3_13_31 cost 12
 v_3_13_31 src_3 1
 v_3_13_31 tq_31_1 1.8
 v_3_13_31 path_3_13_31 1
 v_4_13_16 cost 13
 v_4_13_16 src_4 1
 v_4_13_16 tq_16_1 1.7
 v_4_13_16 path_4_13_16 1
 v_4_13_17 cost 13
 v_4_13_17 src_4 1
 v_4_13_17 tq_17_1 1.7
 v_4_13_17 path_4_13_17 1
 v_4_13_18 cost 13
 v_4_13_18 src_4 1
 v_4_13_18 tq_18_1 1.7
 v_4_13_18 path_4_13_18 1
 v_4_13_19 cost 13
 v_4_13_19 src_4 1
 v_4_13_19 tq_19_1 1.7
 v_4_13_19 path_4_13_19 1
 v_4_13_20 cost 13
 v_4_13_20 src_4 1
 v_4_13_20 tq_20_1 1.7
 v_4_13_20 path_4_13_20 1
 v_4_13_21 cost 13
 v_4_13_21 src_4 1
 v_4_13_21 tq_21_1 1.7
 v_4_13_21 path_4_13_21 1
 v_4_13_22 cost 13
 v_4_13_22 src_4 1
 v_4_13_22 tq_22_1 1.7
 v_4_13_22 path_4_13_22 1
 v_4_13_23 cost 13
 v_4_13_23 src_4 1
 v_4_13_23 tq_23_1 1.7
 v_4_13_23 path_4_13_23 1
 v_4_13_24 cost 13
 v_4_13_24 src_4 1
 v_4_13_24 tq_24_1 1.7
 v_4_13_24 path_4_13_24 1
 v_4_13_25 cost 13
 v_4_13_25 src_4 1
 v_4_13_25 tq_25_1 1.7
 v_4_13_25 path_4_13_25 1
 v_4_13_26 cost 13
 v_4_13_26 src_4 1
 v_4_13_26 tq_26_1 1.7
 v_4_13_26 path_4_13_26 1
 v_4_13_27 cost 13
 v_4_13_27 src_4 1
 v_4_13_27 tq_27_1 1.7
 v_4_13_27 path_4_13_27 1
 v_4_13_28 cost 13
 v_4_13_28 src_4 1
 v_4_13_28 tq_28_1 1.7
 v_4_13_28 path_4_13_28 1
 v_4_13_29 cost 13
 v_4_13_29 src_4 1
 v_4_13_29 tq_29_1 1.7
 v_4_13_29 path_4_13_29 1
 v_4_13_30 cost 13
 v_4_13_30 src_4 1
 v_4_13_30 tq_30_1 1.7
 v_4_13_30 path_4_13_30 1
 v_4_13_31 cost 13
 v_4_13_31 src_4 1
 v_4_13_31 tq_31_1 1.7
 v_4_13_31 path_4_13_31 1
 v_5_13_16 cost 14
 v_5_13_16 src_5 1
 v_5_13_16 tq_16_1 1.6
 v_5_13_16 path_5_13_16 1
 v_5_13_17 cost 14
 v_5_13_17 src_5 1
 v_5_13_17 tq_17_1 1.6
 v_5_13_17 path_5_13_17 1
 v_5_13_18 cost 14
 v_5_13_18 src_5 1
 v_5_13_18 tq_18_1 1.6
 v_5_13_18 path_5_13_18 1
 v_5_13_19 cost 14
 v_5_13_19 src_5 1
 v_5_13_19 tq_19_1 1.6
 v_5_13_19 path_5_13_19 1
 v_5_13_20 cost 14
 v_5_13_20 src_5 1
 v_5_13_20 tq_20_1 1.6
 v_5_13_20 path_5_13_20 1
 v_5_13_21 cost 14
 v_5_13_21 src_5 1
 v_5_13_21 tq_21_1 1.6
 v_5_13_21 path_5_13_21 1
 v_5_13_22 cost 14
 v_5_13_22 src_5 1
 v_5_13_22 tq_22_1 1.6
 v_5_13_22 path_5_13_22 1
 v_5_13_23 cost 14
 v_5_13_23 src_5 1
 v_5_13_23 tq_23_1 1.6
 v_5_13_23 path_5_13_23 1
 v_5_13_24 cost 14
 v_5_13_24 src_5 1
 v_5_13_24 tq_24_1 1.6
 v_5_13_24 path_5_13_24 1
 v_5_13_25 cost 14
 v_5_13_25 src_5 1
 v_5_13_25 tq_25_1 1.6
 v_5_13_25 path_5_13_25 1
 v_5_13_26 cost 14
 v_5_13_26 src_5 1
 v_5_13_26 tq_26_1 1.6
 v_5_13_26 path_5_13_26 1
 v_5_13_27 cost 14
 v_5_13_27 src_5 1
 v_5_13_27 tq_27_1 1.6
 v_5_13_27 path_5_13_27 1
 v_5_13_28 cost 14
 v_5_13_28 src_5 1
 v_5_13_28 tq_28_1 1.6
 v_5_13_28 path_5_13_28 1
 v_5_13_29 cost 14
 v_5_13_29 src_5 1
 v_5_13_29 tq_29_1 1.6
 v_5_13_29 path_5_13_29 1
 v_5_13_30 cost 14
 v_5_13_30 src_5 1
 v_5_13_30 tq_30_1 1.6
 v_5_13_30 path_5_13_30 1
 v_5_13_31 cost 14
 v_5_13_31 src_5 1
 v_5_13_31 tq_31_1 1.6
 v_5_13_31 path_5_13_31 1
 v_7_13_16 cost 16
 v_7_13_16 src_7 1
 v_7_13_16 tq_16_1 1.4
 v_7_13_16 path_7_13_16 1
 v_7_13_17 cost 16
 v_7_13_17 src_7 1
 v_7_13_17 tq_17_1 1.4
 v_7_13_17 path_7_13_17 1
 v_7_13_18 cost 16
 v_7_13_18 src_7 1
 v_7_13_18 tq_18_1 1.4
 v_7_13_18 path_7_13_18 1
 v_7_13_19 cost 16
 v_7_13_19 src_7 1
 v_7_13_19 tq_19_1 1.4
 v_7_13_19 path_7_13_19 1
 v_7_13_20 cost 16
 v_7_13_20 src_7 1
 v_7_13_20 tq_20_1 1.4
 v_7_13_20 path_7_13_20 1
 v_7_13_21 cost 16
 v_7_13_21 src_7 1
 v_7_13_21 tq_21_1 1.4
 v_7_13_21 path_7_13_21 1
 v_7_13_22 cost 16
 v_7_13_22 src_7 1
 v_7_13_22 tq_22_1 1.4
 v_7_13_22 path_7_13_22 1
 v_7_13_23 cost 16
 v_7_13_23 src_7 1
 v_7_13_23 tq_23_1 1.4
 v_7_13_23 path_7_13_23 1
 v_7_13_24 cost 16
 v_7_13_24 src_7 1
 v_7_13_24 tq_24_1 1.4
 v_7_13_24 path_7_13_24 1
 v_7_13_25 cost 16
 v_7_13_25 src_7 1
 v_7_13_25 tq_25_1 1.4
 v_7_13_25 path_7_13_25 1
 v_7_13_26 cost 16
 v_7_13_26 src_7 1
 v_7_13_26 tq_26_1 1.4
 v_7_13_26 path_7_13_26 1
 v_7_13_27 cost 16
 v_7_13_27 src_7 1
 v_7_13_27 tq_27_1 1.4
 v_7_13_27 path_7_13_27 1
 v_7_13_28 cost 16
 v_7_13_28 src_7 1
 v_7_13_28 tq_28_1 1.4
 v_7_13_28 path_7_13_28 1
 v_7_13_29 cost 16
 v_7_13_29 src_7 1
 v_7_13_29 tq_29_1 1.4
 v_7_13_29 path_7_13_29 1
 v_7_13_30 cost 16
 v_7_13_30 src_7 1
 v_7_13_30 tq_30_1 1.4
 v_7_13_30 path_7_13_30 1
 v_7_13_31 cost 16
 v_7_13_31 src_7 1
 v_7_13_31 tq_31_1 1.4
 v_7_13_31 path_7_13_31 1
 v_8_13_16 cost 17
 v_8_13_16 src_8 1
 v_8_13_16 tq_16_1 1.3
 v_8_13_16 path_8_13_16 1
 v_8_13_17 cost 17
 v_8_13_17 src_8 1
 v_8_13_17 tq_17_1 1.3
 v_8_13_17 path_8_13_17 1
 v_8_13_18 cost 17
 v_8_13_18 src_8 1
 v_8_13_18 tq_18_1 1.3
 v_8_13_18 path_8_13_18 1
 v_8_13_19 cost 17
 v_8_13_19 src_8 1
 v_8_13_19 tq_19_1 1.3
 v_8_13_19 path_8_13_19 1
 v_8_13_20 cost 17
 v_8_13_20 src_8 1
 v_8_13_20 tq_20_1 1.3
 v_8_13_20 path_8_13_20 1
 v_8_13_21 cost 17
 v_8_13_21 src_8 1
 v_8_13_21 tq_21_1 1.3
 v_8_13_21 path_8_13_21 1
 v_8_13_22 cost 17
 v_8_13_22 src_8 1
 v_8_13_22 tq_22_1 1.3
 v_8_13_22 path_8_13_22 1
 v_8_13_23 cost 17
 v_8_13_23 src_8 1
 v_8_13_23 tq_23_1 1.3
 v_8_13_23 path_8_13_23 1
 v_8_13_24 cost 17
 v_8_13_24 src_8 1
 v_8_13_24 tq_24_1 1.3
 v_8_13_24 path_8_13_24 1
 v_8_13_25 cost 17
 v_8_13_25 src_8 1
 v_8_13_25 tq_25_1 1.3
 v_8_13_25 path_8_13_25 1
 v_8_13_26 cost 17
 v_8_13_26 src_8 1
 v_8_13_26 tq_26_1 1.3
 v_8_13_26 path_8_13_26 1
 v_8_13_27 cost 17
 v_8_13_27 src_8 1
 v_8_13_27 tq_27_1 1.3
 v_8_13_27 path_8_13_27 1
 v_8_13_28 cost 17
 v_8_13_28 src_8 1
 v_8_13_28 tq_28_1 1.3
 v_8_13_28 path_8_13_28 1
 v_8_13_29 cost 17
 v_8_13_29 src_8 1
 v_8_13_29 tq_29_1 1.3
 v_8_13_29 path_8_13_29 1
 v_8_13_30 cost 17
 v_8_13_30 src_8 1
 v_8_13_30 tq_30_1 1.3
 v_8_13_30 path_8_13_30 1
 v_8_13_31 cost 17
 v_8_13_31 src_8 1
 v_8_13_31 tq_31_1 1.3
 v_8_13_31 path_8_13_31 1
 v_9_13_16 cost 18
 v_9_13_16 src_9 1
 v_9_13_16 tq_16_1 1.2
 v_9_13_16 path_9_13_16 1
 v_9_13_17 cost 18
 v_9_13_17 src_9 1
 v_9_13_17 tq_17_1 1.2
 v_9_13_17 path_9_13_17 1
 v_9_13_18 cost 18
 v_9_13_18 src_9 1
 v_9_13_18 tq_18_1 1.2
 v_9_13_18 path_9_13_18 1
 v_9_13_19 cost 18
 v_9_13_19 src_9 1
 v_9_13_19 tq_19_1 1.2
 v_9_13_19 path_9_13_19 1
 v_9_13_20 cost 18
 v_9_13_20 src_9 1
 v_9_13_20 tq_20_1 1.2
 v_9_13_20 path_9_13_20 1
 v_9_13_21 cost 18
 v_9_13_21 src_9 1
 v_9_13_21 tq_21_1 1.2
 v_9_13_21 path_9_13_21 1
 v_9_13_22 cost 18
 v_9_13_22 src_9 1
 v_9_13_22 tq_22_1 1.2
 v_9_13_22 path_9_13_22 1
 v_9_13_23 cost 18
 v_9_13_23 src_9 1
 v_9_13_23 tq_23_1 1.2
 v_9_13_23 path_9_13_23 1
 v_9_13_24 cost 18
 v_9_13_24 src_9 1
 v_9_13_24 tq_24_1 1.2
 v_9_13_24 path_9_13_24 1
 v_9_13_25 cost 18
 v_9_13_25 src_9 1
 v_9_13_25 tq_25_1 1.2
 v_9_13_25 path_9_13_25 1
 v_9_13_26 cost 18
 v_9_13_26 src_9 1
 v_9_13_26 tq_26_1 1.2
 v_9_13_26 path_9_13_26 1
 v_9_13_27 cost 18
 v_9_13_27 src_9 1
 v_9_13_27 tq_27_1 1.2
 v_9_13_27 path_9_13_27 1
 v_9_13_28 cost 18
 v_9_13_28 src_9 1
 v_9_13_28 tq_28_1 1.2
 v_9_13_28 path_9_13_28 1
 v_9_13_29 cost 18
 v_9_13_29 src_9 1
 v_9_13_29 tq_29_1 1.2
 v_9_13_29 path_9_13_29 1
 v_9_13_30 cost 18
 v_9_13_30 src_9 1
 v_9_13_30 tq_30_1 1.2
 v_9_13_30 path_9_13_30 1
 v_9_13_31 cost 18
 v_9_13_31 src_9 1
 v_9_13_31 tq_31_1 1.2
 v_9_13_31 path_9_13_31 1
 v_10_13_16 cost 19
 v_10_13_16 src_10 1
 v_10_13_16 tq_16_1 1.1
 v_10_13_16 path_10_13_16 1
 v_10_13_17 cost 19
 v_10_13_17 src_10 1
 v_10_13_17 tq_17_1 1.1
 v_10_13_17 path_10_13_17 1
 v_10_13_18 cost 19
 v_10_13_18 src_10 1
 v_10_13_18 tq_18_1 1.1
 v_10_13_18 path_10_13_18 1
 v_10_13_19 cost 19
 v_10_13_19 src_10 1
 v_10_13_19 tq_19_1 1.1
 v_10_13_19 path_10_13_19 1
 v_10_13_20 cost 19
 v_10_13_20 src_10 1
 v_10_13_20 tq_20_1 1.1
 v_10_13_20 path_10_13_20 1
 v_10_13_21 cost 19
 v_10_13_21 src_10 1
 v_10_13_21 tq_21_1 1.1
 v_10_13_21 path_10_13_21 1
 v_10_13_22 cost 19
 v_10_13_22 src_10 1
 v_10_13_22 tq_22_1 1.1
 v_10_13_22 path_10_13_22 1
 v_10_13_23 cost 19
 v_10_13_23 src_10 1
 v_10_13_23 tq_23_1 1.1
 v_10_13_23 path_10_13_23 1
 v_10_13_24 cost 19
 v_10_13_24 src_10 1
 v_10_13_24 tq_24_1 1.1
 v_10_13_24 path_10_13_24 1
 v_10_13_25 cost 19
 v_10_13_25 src_10 1
 v_10_13_25 tq_25_1 1.1
 v_10_13_25 path_10_13_25 1
 v_10_13_26 cost 19
 v_10_13_26 src_10 1
 v_10_13_26 tq_26_1 1.1
 v_10_13_26 path_10_13_26 1
 v_10_13_27 cost 19
 v_10_13_27 src_10 1
 v_10_13_27 tq_27_1 1.1
 v_10_13_27 path_10_13_27 1
 v_10_13_28 cost 19
 v_10_13_28 src_10 1
 v_10_13_28 tq_28_1 1.1
 v_10_13_28 path_10_13_28 1
 v_10_13_29 cost 19
 v_10_13_29 src_10 1
 v_10_13_29 tq_29_1 1.1
 v_10_13_29 path_10_13_29 1
 v_10_13_30 cost 19
 v_10_13_30 src_10 1
 v_10_13_30 tq_30_1 1.1
 v_10_13_30 path_10_13_30 1
 v_10_13_31 cost 19
 v_10_13_31 src_10 1
 v_10_13_31 tq_31_1 1.1
 v_10_13_31 path_10_13_31 1
 v_1_14_16 cost 10
 v_1_14_16 src_1 1
 v_1_14_16 tq_16_1 2
 v_1_14_16 path_1_14_16 1
 v_1_14_17 cost 10
 v_1_14_17 src_1 1
 v_1_14_17 tq_17_1 2
 v_1_14_17 path_1_14_17 1
 v_1_14_18 cost 10
 v_1_14_18 src_1 1
 v_1_14_18 tq_18_1 2
 v_1_14_18 path_1_14_18 1
 v_1_14_19 cost 10
 v_1_14_19 src_1 1
 v_1_14_19 tq_19_1 2
 v_1_14_19 path_1_14_19 1
 v_1_14_20 cost 10
 v_1_14_20 src_1 1
 v_1_14_20 tq_20_1 2
 v_1_14_20 path_1_14_20 1
 v_1_14_21 cost 10
 v_1_14_21 src_1 1
 v_1_14_21 tq_21_1 2
 v_1_14_21 path_1_14_21 1
 v_1_14_22 cost 10
 v_1_14_22 src_1 1
 v_1_14_22 tq_22_1 2
 v_1_14_22 path_1_14_22 1
 v_1_14_23 cost 10
 v_1_14_23 src_1 1
 v_1_14_23 tq_23_1 2
 v_1_14_23 path_1_14_23 1
 v_1_14_24 cost 10
 v_1_14_24 src_1 1
 v_1_14_24 tq_24_1 2
 v_1_14_24 path_1_14_24 1
 v_1_14_25 cost 10
 v_1_14_25 src_1 1
 v_1_14_25 tq_25_1 2
 v_1_14_25 path_1_14_25 1
 v_1_14_26 cost 10
 v_1_14_26 src_1 1
 v_1_14_26 tq_26_1 2
 v_1_14_26 path_1_14_26 1
 v_1_14_27 cost 10
 v_1_14_27 src_1 1
 v_1_14_27 tq_27_1 2
 v_1_14_27 path_1_14_27 1
 v_1_14_28 cost 10
 v_1_14_28 src_1 1
 v_1_14_28 tq_28_1 2
 v_1_14_28 path_1_14_28 1
 v_1_14_29 cost 10
 v_1_14_29 src_1 1
 v_1_14_29 tq_29_1 2
 v_1_14_29 path_1_14_29 1
 v_1_14_30 cost 10
 v_1_14_30 src_1 1
 v_1_14_30 tq_30_1 2
 v_1_14_30 path_1_14_30 1
 v_1_14_31 cost 10
 v_1_14_31 src_1 1
 v_1_14_31 tq_31_1 2
 v_1_14_31 path_1_14_31 1
 v_2_14_16 cost 11
 v_2_14_16 src_2 1
 v_2_14_16 tq_16_1 1.9
 v_2_14_16 path_2_14_16 1
 v_2_14_17 cost 11
 v_2_14_17 src_2 1
 v_2_14_17 tq_17_1 1.9
 v_2_14_17 path_2_14_17 1
 v_2_14_18 cost 11
 v_2_14_18 src_2 1
 v_2_14_18 tq_18_1 1.9
 v_2_14_18 path_2_14_18 1
 v_2_14_19 cost 11
 v_2_14_19 src_2 1
 v_2_14_19 tq_19_1 1.9
 v_2_14_19 path_2_14_19 1
 v_2_14_20 cost 11
 v_2_14_20 src_2 1
 v_2_14_20 tq_20_1 1.9
 v_2_14_20 path_2_14_20 1
 v_2_14_21 cost 11
 v_2_14_21 src_2 1
 v_2_14_21 tq_21_1 1.9
 v_2_14_21 path_2_14_21 1
 v_2_14_22 cost 11
 v_2_14_22 src_2 1
 v_2_14_22 tq_22_1 1.9
 v_2_14_22 path_2_14_22 1
 v_2_14_23 cost 11
 v_2_14_23 src_2 1
 v_2_14_23 tq_23_1 1.9
 v_2_14_23 path_2_14_23 1
 v_2_14_24 cost 11
 v_2_14_24 src_2 1
 v_2_14_24 tq_24_1 1.9
 v_2_14_24 path_2_14_24 1
 v_2_14_25 cost 11
 v_2_14_25 src_2 1
 v_2_14_25 tq_25_1 1.9
 v_2_14_25 path_2_14_25 1
 v_2_14_26 cost 11
 v_2_14_26 src_2 1
 v_2_14_26 tq_26_1 1.9
 v_2_14_26 path_2_14_26 1
 v_2_14_27 cost 11
 v_2_14_27 src_2 1
 v_2_14_27 tq_27_1 1.9
 v_2_14_27 path_2_14_27 1
 v_2_14_28 cost 11
 v_2_14_28 src_2 1
 v_2_14_28 tq_28_1 1.9
 v_2_14_28 path_2_14_28 1
 v_2_14_29 cost 11
 v_2_14_29 src_2 1
 v_2_14_29 tq_29_1 1.9
 v_2_14_29 path_2_14_29 1
 v_2_14_30 cost 11
 v_2_14_30 src_2 1
 v_2_14_30 tq_30_1 1.9
 v_2_14_30 path_2_14_30 1
 v_2_14_31 cost 11
 v_2_14_31 src_2 1
 v_2_14_31 tq_31_1 1.9
 v_2_14_31 path_2_14_31 1
 v_3_14_16 cost 12
 v_3_14_16 src_3 1
 v_3_14_16 tq_16_1 1.8
 v_3_14_16 path_3_14_16 1
 v_3_14_17 cost 12
 v_3_14_17 src_3 1
 v_3_14_17 tq_17_1 1.8
 v_3_14_17 path_3_14_17 1
 v_3_14_18 cost 12
 v_3_14_18 src_3 1
 v_3_14_18 tq_18_1 1.8
 v_3_14_18 path_3_14_18 1
 v_3_14_19 cost 12
 v_3_14_19 src_3 1
 v_3_14_19 tq_19_1 1.8
 v_3_14_19 path_3_14_19 1
 v_3_14_20 cost 12
 v_3_14_20 src_3 1
 v_3_14_20 tq_20_1 1.8
 v_3_14_20 path_3_14_20 1
 v_3_14_21 cost 12
 v_3_14_21 src_3 1
 v_3_14_21 tq_21_1 1.8
 v_3_14_21 path_3_14_21 1
 v_3_14_22 cost 12
 v_3_14_22 src_3 1
 v_3_14_22 tq_22_1 1.8
 v_3_14_22 path_3_14_22 1
 v_3_14_23 cost 12
 v_3_14_23 src_3 1
 v_3_14_23 tq_23_1 1.8
 v_3_14_23 path_3_14_23 1
 v_3_14_24 cost 12
 v_3_14_24 src_3 1
 v_3_14_24 tq_24_1 1.8
 v_3_14_24 path_3_14_24 1
 v_3_14_25 cost 12
 v_3_14_25 src_3 1
 v_3_14_25 tq_25_1 1.8
 v_3_14_25 path_3_14_25 1
 v_3_14_26 cost 12
 v_3_14_26 src_3 1
 v_3_14_26 tq_26_1 1.8
 v_3_14_26 path_3_14_26 1
 v_3_14_27 cost 12
 v_3_14_27 src_3 1
 v_3_14_27 tq_27_1 1.8
 v_3_14_27 path_3_14_27 1
 v_3_14_28 cost 12
 v_3_14_28 src_3 1
 v_3_14_28 tq_28_1 1.8
 v_3_14_28 path_3_14_28 1
 v_3_14_29 cost 12
 v_3_14_29 src_3 1
 v_3_14_29 tq_29_1 1.8
 v_3_14_29 path_3_14_29 1
 v_3_14_30 cost 12
 v_3_14_30 src_3 1
 v_3_14_30 tq_30_1 1.8
 v_3_14_30 path_3_14_30 1
 v_3_14_31 cost 12
 v_3_14_31 src_3 1
 v_3_14_31 tq_31_1 1.8
 v_3_14_31 path_3_14_31 1
 v_4_14_16 cost 13
 v_4_14_16 src_4 1
 v_4_14_16 tq_16_1 1.7
 v_4_14_16 path_4_14_16 1
 v_4_14_17 cost 13
 v_4_14_17 src_4 1
 v_4_14_17 tq_17_1 1.7
 v_4_14_17 path_4_14_17 1
 v_4_14_18 cost 13
 v_4_14_18 src_4 1
 v_4_14_18 tq_18_1 1.7
 v_4_14_18 path_4_14_18 1
 v_4_14_19 cost 13
 v_4_14_19 src_4 1
 v_4_14_19 tq_19_1 1.7
 v_4_14_19 path_4_14_19 1
 v_4_14_20 cost 13
 v_4_14_20 src_4 1
 v_4_14_20 tq_20_1 1.7
 v_4_14_20 path_4_14_20 1
 v_4_14_21 cost 13
 v_4_14_21 src_4 1
 v_4_14_21 tq_21_1 1.7
 v_4_14_21 path_4_14_21 1
 v_4_14_22 cost 13
 v_4_14_22 src_4 1
 v_4_14_22 tq_22_1 1.7
 v_4_14_22 path_4_14_22 1
 v_4_14_23 cost 13
 v_4_14_23 src_4 1
 v_4_14_23 tq_23_1 1.7
 v_4_14_23 path_4_14_23 1
 v_4_14_24 cost 13
 v_4_14_24 src_4 1
 v_4_14_24 tq_24_1 1.7
 v_4_14_24 path_4_14_24 1
 v_4_14_25 cost 13
 v_4_14_25 src_4 1
 v_4_14_25 tq_25_1 1.7
 v_4_14_25 path_4_14_25 1
 v_4_14_26 cost 13
 v_4_14_26 src_4 1
 v_4_14_26 tq_26_1 1.7
 v_4_14_26 path_4_14_26 1
 v_4_14_27 cost 13
 v_4_14_27 src_4 1
 v_4_14_27 tq_27_1 1.7
 v_4_14_27 path_4_14_27 1
 v_4_14_28 cost 13
 v_4_14_28 src_4 1
 v_4_14_28 tq_28_1 1.7
 v_4_14_28 path_4_14_28 1
 v_4_14_29 cost 13
 v_4_14_29 src_4 1
 v_4_14_29 tq_29_1 1.7
 v_4_14_29 path_4_14_29 1
 v_4_14_30 cost 13
 v_4_14_30 src_4 1
 v_4_14_30 tq_30_1 1.7
 v_4_14_30 path_4_14_30 1
 v_4_14_31 cost 13
 v_4_14_31 src_4 1
 v_4_14_31 tq_31_1 1.7
 v_4_14_31 path_4_14_31 1
 v_5_14_16 cost 14
 v_5_14_16 src_5 1
 v_5_14_16 tq_16_1 1.6
 v_5_14_16 path_5_14_16 1
 v_5_14_17 cost 14
 v_5_14_17 src_5 1
 v_5_14_17 tq_17_1 1.6
 v_5_14_17 path_5_14_17 1
 v_5_14_18 cost 14
 v_5_14_18 src_5 1
 v_5_14_18 tq_18_1 1.6
 v_5_14_18 path_5_14_18 1
 v_5_14_19 cost 14
 v_5_14_19 src_5 1
 v_5_14_19 tq_19_1 1.6
 v_5_14_19 path_5_14_19 1
 v_5_14_20 cost 14
 v_5_14_20 src_5 1
 v_5_14_20 tq_20_1 1.6
 v_5_14_20 path_5_14_20 1
 v_5_14_21 cost 14
 v_5_14_21 src_5 1
 v_5_14_21 tq_21_1 1.6
 v_5_14_21 path_5_14_21 1
 v_5_14_22 cost 14
 v_5_14_22 src_5 1
 v_5_14_22 tq_22_1 1.6
 v_5_14_22 path_5_14_22 1
 v_5_14_23 cost 14
 v_5_14_23 src_5 1
 v_5_14_23 tq_23_1 1.6
 v_5_14_23 path_5_14_23 1
 v_5_14_24 cost 14
 v_5_14_24 src_5 1
 v_5_14_24 tq_24_1 1.6
 v_5_14_24 path_5_14_24 1
 v_5_14_25 cost 14
 v_5_14_25 src_5 1
 v_5_14_25 tq_25_1 1.6
 v_5_14_25 path_5_14_25 1
 v_5_14_26 cost 14
 v_5_14_26 src_5 1
 v_5_14_26 tq_26_1 1.6
 v_5_14_26 path_5_14_26 1
 v_5_14_27 cost 14
 v_5_14_27 src_5 1
 v_5_14_27 tq_27_1 1.6
 v_5_14_27 path_5_14_27 1
 v_5_14_28 cost 14
 v_5_14_28 src_5 1
 v_5_14_28 tq_28_1 1.6
 v_5_14_28 path_5_14_28 1
 v_5_14_29 cost 14
 v_5_14_29 src_5 1
 v_5_14_29 tq_29_1 1.6
 v_5_14_29 path_5_14_29 1
 v_5_14_30 cost 14
 v_5_14_30 src_5 1
 v_5_14_30 tq_30_1 1.6
 v_5_14_30 path_5_14_30 1
 v_5_14_31 cost 14
 v_5_14_31 src_5 1
 v_5_14_31 tq_31_1 1.6
 v_5_14_31 path_5_14_31 1
 v_6_14_16 cost 15
 v_6_14_16 src_6 1
 v_6_14_16 tq_16_1 1.5
 v_6_14_16 path_6_14_16 1
 v_6_14_17 cost 15
 v_6_14_17 src_6 1
 v_6_14_17 tq_17_1 1.5
 v_6_14_17 path_6_14_17 1
 v_6_14_18 cost 15
 v_6_14_18 src_6 1
 v_6_14_18 tq_18_1 1.5
 v_6_14_18 path_6_14_18 1
 v_6_14_19 cost 15
 v_6_14_19 src_6 1
 v_6_14_19 tq_19_1 1.5
 v_6_14_19 path_6_14_19 1
 v_6_14_20 cost 15
 v_6_14_20 src_6 1
 v_6_14_20 tq_20_1 1.5
 v_6_14_20 path_6_14_20 1
 v_6_14_21 cost 15
 v_6_14_21 src_6 1
 v_6_14_21 tq_21_1 1.5
 v_6_14_21 path_6_14_21 1
 v_6_14_22 cost 15
 v_6_14_22 src_6 1
 v_6_14_22 tq_22_1 1.5
 v_6_14_22 path_6_14_22 1
 v_6_14_23 cost 15
 v_6_14_23 src_6 1
 v_6_14_23 tq_23_1 1.5
 v_6_14_23 path_6_14_23 1
 v_6_14_24 cost 15
 v_6_14_24 src_6 1
 v_6_14_24 tq_24_1 1.5
 v_6_14_24 path_6_14_24 1
 v_6_14_25 cost 15
 v_6_14_25 src_6 1
 v_6_14_25 tq_25_1 1.5
 v_6_14_25 path_6_14_25 1
 v_6_14_26 cost 15
 v_6_14_26 src_6 1
 v_6_14_26 tq_26_1 1.5
 v_6_14_26 path_6_14_26 1
 v_6_14_27 cost 15
 v_6_14_27 src_6 1
 v_6_14_27 tq_27_1 1.5
 v_6_14_27 path_6_14_27 1
 v_6_14_28 cost 15
 v_6_14_28 src_6 1
 v_6_14_28 tq_28_1 1.5
 v_6_14_28 path_6_14_28 1
 v_6_14_29 cost 15
 v_6_14_29 src_6 1
 v_6_14_29 tq_29_1 1.5
 v_6_14_29 path_6_14_29 1
 v_6_14_30 cost 15
 v_6_14_30 src_6 1
 v_6_14_30 tq_30_1 1.5
 v_6_14_30 path_6_14_30 1
 v_6_14_31 cost 15
 v_6_14_31 src_6 1
 v_6_14_31 tq_31_1 1.5
 v_6_14_31 path_6_14_31 1
 v_7_14_16 cost 16
 v_7_14_16 src_7 1
 v_7_14_16 tq_16_1 1.4
 v_7_14_16 path_7_14_16 1
 v_7_14_17 cost 16
 v_7_14_17 src_7 1
 v_7_14_17 tq_17_1 1.4
 v_7_14_17 path_7_14_17 1
 v_7_14_18 cost 16
 v_7_14_18 src_7 1
 v_7_14_18 tq_18_1 1.4
 v_7_14_18 path_7_14_18 1
 v_7_14_19 cost 16
 v_7_14_19 src_7 1
 v_7_14_19 tq_19_1 1.4
 v_7_14_19 path_7_14_19 1
 v_7_14_20 cost 16
 v_7_14_20 src_7 1
 v_7_14_20 tq_20_1 1.4
 v_7_14_20 path_7_14_20 1
 v_7_14_21 cost 16
 v_7_14_21 src_7 1
 v_7_14_21 tq_21_1 1.4
 v_7_14_21 path_7_14_21 1
 v_7_14_22 cost 16
 v_7_14_22 src_7 1
 v_7_14_22 tq_22_1 1.4
 v_7_14_22 path_7_14_22 1
 v_7_14_23 cost 16
 v_7_14_23 src_7 1
 v_7_14_23 tq_23_1 1.4
 v_7_14_23 path_7_14_23 1
 v_7_14_24 cost 16
 v_7_14_24 src_7 1
 v_7_14_24 tq_24_1 1.4
 v_7_14_24 path_7_14_24 1
 v_7_14_25 cost 16
 v_7_14_25 src_7 1
 v_7_14_25 tq_25_1 1.4
 v_7_14_25 path_7_14_25 1
 v_7_14_26 cost 16
 v_7_14_26 src_7 1
 v_7_14_26 tq_26_1 1.4
 v_7_14_26 path_7_14_26 1
 v_7_14_27 cost 16
 v_7_14_27 src_7 1
 v_7_14_27 tq_27_1 1.4
 v_7_14_27 path_7_14_27 1
 v_7_14_28 cost 16
 v_7_14_28 src_7 1
 v_7_14_28 tq_28_1 1.4
 v_7_14_28 path_7_14_28 1
 v_7_14_29 cost 16
 v_7_14_29 src_7 1
 v_7_14_29 tq_29_1 1.4
 v_7_14_29 path_7_14_29 1
 v_7_14_30 cost 16
 v_7_14_30 src_7 1
 v_7_14_30 tq_30_1 1.4
 v_7_14_30 path_7_14_30 1
 v_7_14_31 cost 16
 v_7_14_31 src_7 1
 v_7_14_31 tq_31_1 1.4
 v_7_14_31 path_7_14_31 1
 v_8_14_16 cost 17
 v_8_14_16 src_8 1
 v_8_14_16 tq_16_1 1.3
 v_8_14_16 path_8_14_16 1
 v_8_14_17 cost 17
 v_8_14_17 src_8 1
 v_8_14_17 tq_17_1 1.3
 v_8_14_17 path_8_14_17 1
 v_8_14_18 cost 17
 v_8_14_18 src_8 1
 v_8_14_18 tq_18_1 1.3
 v_8_14_18 path_8_14_18 1
 v_8_14_19 cost 17
 v_8_14_19 src_8 1
 v_8_14_19 tq_19_1 1.3
 v_8_14_19 path_8_14_19 1
 v_8_14_20 cost 17
 v_8_14_20 src_8 1
 v_8_14_20 tq_20_1 1.3
 v_8_14_20 path_8_14_20 1
 v_8_14_21 cost 17
 v_8_14_21 src_8 1
 v_8_14_21 tq_21_1 1.3
 v_8_14_21 path_8_14_21 1
 v_8_14_22 cost 17
 v_8_14_22 src_8 1
 v_8_14_22 tq_22_1 1.3
 v_8_14_22 path_8_14_22 1
 v_8_14_23 cost 17
 v_8_14_23 src_8 1
 v_8_14_23 tq_23_1 1.3
 v_8_14_23 path_8_14_23 1
 v_8_14_24 cost 17
 v_8_14_24 src_8 1
 v_8_14_24 tq_24_1 1.3
 v_8_14_24 path_8_14_24 1
 v_8_14_25 cost 17
 v_8_14_25 src_8 1
 v_8_14_25 tq_25_1 1.3
 v_8_14_25 path_8_14_25 1
 v_8_14_26 cost 17
 v_8_14_26 src_8 1
 v_8_14_26 tq_26_1 1.3
 v_8_14_26 path_8_14_26 1
 v_8_14_27 cost 17
 v_8_14_27 src_8 1
 v_8_14_27 tq_27_1 1.3
 v_8_14_27 path_8_14_27 1
 v_8_14_28 cost 17
 v_8_14_28 src_8 1
 v_8_14_28 tq_28_1 1.3
 v_8_14_28 path_8_14_28 1
 v_8_14_29 cost 17
 v_8_14_29 src_8 1
 v_8_14_29 tq_29_1 1.3
 v_8_14_29 path_8_14_29 1
 v_8_14_30 cost 17
 v_8_14_30 src_8 1
 v_8_14_30 tq_30_1 1.3
 v_8_14_30 path_8_14_30 1
 v_8_14_31 cost 17
 v_8_14_31 src_8 1
 v_8_14_31 tq_31_1 1.3
 v_8_14_31 path_8_14_31 1
 v_4_15_16 cost 13
 v_4_15_16 src_4 1
 v_4_15_16 tq_16_1 1.7
 v_4_15_16 path_4_15_16 1
 v_4_15_17 cost 13
 v_4_15_17 src_4 1
 v_4_15_17 tq_17_1 1.7
 v_4_15_17 path_4_15_17 1
 v_4_15_18 cost 13
 v_4_15_18 src_4 1
 v_4_15_18 tq_18_1 1.7
 v_4_15_18 path_4_15_18 1
 v_4_15_19 cost 13
 v_4_15_19 src_4 1
 v_4_15_19 tq_19_1 1.7
 v_4_15_19 path_4_15_19 1
 v_4_15_20 cost 13
 v_4_15_20 src_4 1
 v_4_15_20 tq_20_1 1.7
 v_4_15_20 path_4_15_20 1
 v_4_15_21 cost 13
 v_4_15_21 src_4 1
 v_4_15_21 tq_21_1 1.7
 v_4_15_21 path_4_15_21 1
 v_4_15_22 cost 13
 v_4_15_22 src_4 1
 v_4_15_22 tq_22_1 1.7
 v_4_15_22 path_4_15_22 1
 v_4_15_23 cost 13
 v_4_15_23 src_4 1
 v_4_15_23 tq_23_1 1.7
 v_4_15_23 path_4_15_23 1
 v_4_15_24 cost 13
 v_4_15_24 src_4 1
 v_4_15_24 tq_24_1 1.7
 v_4_15_24 path_4_15_24 1
 v_4_15_25 cost 13
 v_4_15_25 src_4 1
 v_4_15_25 tq_25_1 1.7
 v_4_15_25 path_4_15_25 1
 v_4_15_26 cost 13
 v_4_15_26 src_4 1
 v_4_15_26 tq_26_1 1.7
 v_4_15_26 path_4_15_26 1
 v_4_15_27 cost 13
 v_4_15_27 src_4 1
 v_4_15_27 tq_27_1 1.7
 v_4_15_27 path_4_15_27 1
 v_4_15_28 cost 13
 v_4_15_28 src_4 1
 v_4_15_28 tq_28_1 1.7
 v_4_15_28 path_4_15_28 1
 v_4_15_29 cost 13
 v_4_15_29 src_4 1
 v_4_15_29 tq_29_1 1.7
 v_4_15_29 path_4_15_29 1
 v_4_15_30 cost 13
 v_4_15_30 src_4 1
 v_4_15_30 tq_30_1 1.7
 v_4_15_30 path_4_15_30 1
 v_4_15_31 cost 13
 v_4_15_31 src_4 1
 v_4_15_31 tq_31_1 1.7
 v_4_15_31 path_4_15_31 1
 v_5_15_16 cost 14
 v_5_15_16 src_5 1
 v_5_15_16 tq_16_1 1.6
 v_5_15_16 path_5_15_16 1
 v_5_15_17 cost 14
 v_5_15_17 src_5 1
 v_5_15_17 tq_17_1 1.6
 v_5_15_17 path_5_15_17 1
 v_5_15_18 cost 14
 v_5_15_18 src_5 1
 v_5_15_18 tq_18_1 1.6
 v_5_15_18 path_5_15_18 1
 v_5_15_19 cost 14
 v_5_15_19 src_5 1
 v_5_15_19 tq_19_1 1.6
 v_5_15_19 path_5_15_19 1
 v_5_15_20 cost 14
 v_5_15_20 src_5 1
 v_5_15_20 tq_20_1 1.6
 v_5_15_20 path_5_15_20 1
 v_5_15_21 cost 14
 v_5_15_21 src_5 1
 v_5_15_21 tq_21_1 1.6
 v_5_15_21 path_5_15_21 1
 v_5_15_22 cost 14
 v_5_15_22 src_5 1
 v_5_15_22 tq_22_1 1.6
 v_5_15_22 path_5_15_22 1
 v_5_15_23 cost 14
 v_5_15_23 src_5 1
 v_5_15_23 tq_23_1 1.6
 v_5_15_23 path_5_15_23 1
 v_5_15_24 cost 14
 v_5_15_24 src_5 1
 v_5_15_24 tq_24_1 1.6
 v_5_15_24 path_5_15_24 1
 v_5_15_25 cost 14
 v_5_15_25 src_5 1
 v_5_15_25 tq_25_1 1.6
 v_5_15_25 path_5_15_25 1
 v_5_15_26 cost 14
 v_5_15_26 src_5 1
 v_5_15_26 tq_26_1 1.6
 v_5_15_26 path_5_15_26 1
 v_5_15_27 cost 14
 v_5_15_27 src_5 1
 v_5_15_27 tq_27_1 1.6
 v_5_15_27 path_5_15_27 1
 v_5_15_28 cost 14
 v_5_15_28 src_5 1
 v_5_15_28 tq_28_1 1.6
 v_5_15_28 path_5_15_28 1
 v_5_15_29 cost 14
 v_5_15_29 src_5 1
 v_5_15_29 tq_29_1 1.6
 v_5_15_29 path_5_15_29 1
 v_5_15_30 cost 14
 v_5_15_30 src_5 1
 v_5_15_30 tq_30_1 1.6
 v_5_15_30 path_5_15_30 1
 v_5_15_31 cost 14
 v_5_15_31 src_5 1
 v_5_15_31 tq_31_1 1.6
 v_5_15_31 path_5_15_31 1
 v_6_15_16 cost 15
 v_6_15_16 src_6 1
 v_6_15_16 tq_16_1 1.5
 v_6_15_16 path_6_15_16 1
 v_6_15_17 cost 15
 v_6_15_17 src_6 1
 v_6_15_17 tq_17_1 1.5
 v_6_15_17 path_6_15_17 1
 v_6_15_18 cost 15
 v_6_15_18 src_6 1
 v_6_15_18 tq_18_1 1.5
 v_6_15_18 path_6_15_18 1
 v_6_15_19 cost 15
 v_6_15_19 src_6 1
 v_6_15_19 tq_19_1 1.5
 v_6_15_19 path_6_15_19 1
 v_6_15_20 cost 15
 v_6_15_20 src_6 1
 v_6_15_20 tq_20_1 1.5
 v_6_15_20 path_6_15_20 1
 v_6_15_21 cost 15
 v_6_15_21 src_6 1
 v_6_15_21 tq_21_1 1.5
 v_6_15_21 path_6_15_21 1
 v_6_15_22 cost 15
 v_6_15_22 src_6 1
 v_6_15_22 tq_22_1 1.5
 v_6_15_22 path_6_15_22 1
 v_6_15_23 cost 15
 v_6_15_23 src_6 1
 v_6_15_23 tq_23_1 1.5
 v_6_15_23 path_6_15_23 1
 v_6_15_24 cost 15
 v_6_15_24 src_6 1
 v_6_15_24 tq_24_1 1.5
 v_6_15_24 path_6_15_24 1
 v_6_15_25 cost 15
 v_6_15_25 src_6 1
 v_6_15_25 tq_25_1 1.5
 v_6_15_25 path_6_15_25 1
 v_6_15_26 cost 15
 v_6_15_26 src_6 1
 v_6_15_26 tq_26_1 1.5
 v_6_15_26 path_6_15_26 1
 v_6_15_27 cost 15
 v_6_15_27 src_6 1
 v_6_15_27 tq_27_1 1.5
 v_6_15_27 path_6_15_27 1
 v_6_15_28 cost 15
 v_6_15_28 src_6 1
 v_6_15_28 tq_28_1 1.5
 v_6_15_28 path_6_15_28 1
 v_6_15_29 cost 15
 v_6_15_29 src_6 1
 v_6_15_29 tq_29_1 1.5
 v_6_15_29 path_6_15_29 1
 v_6_15_30 cost 15
 v_6_15_30 src_6 1
 v_6_15_30 tq_30_1 1.5
 v_6_15_30 path_6_15_30 1
 v_6_15_31 cost 15
 v_6_15_31 src_6 1
 v_6_15_31 tq_31_1 1.5
 v_6_15_31 path_6_15_31 1
 v_7_15_16 cost 16
 v_7_15_16 src_7 1
 v_7_15_16 tq_16_1 1.4
 v_7_15_16 path_7_15_16 1
 v_7_15_17 cost 16
 v_7_15_17 src_7 1
 v_7_15_17 tq_17_1 1.4
 v_7_15_17 path_7_15_17 1
 v_7_15_18 cost 16
 v_7_15_18 src_7 1
 v_7_15_18 tq_18_1 1.4
 v_7_15_18 path_7_15_18 1
 v_7_15_19 cost 16
 v_7_15_19 src_7 1
 v_7_15_19 tq_19_1 1.4
 v_7_15_19 path_7_15_19 1
 v_7_15_20 cost 16
 v_7_15_20 src_7 1
 v_7_15_20 tq_20_1 1.4
 v_7_15_20 path_7_15_20 1
 v_7_15_21 cost 16
 v_7_15_21 src_7 1
 v_7_15_21 tq_21_1 1.4
 v_7_15_21 path_7_15_21 1
 v_7_15_22 cost 16
 v_7_15_22 src_7 1
 v_7_15_22 tq_22_1 1.4
 v_7_15_22 path_7_15_22 1
 v_7_15_23 cost 16
 v_7_15_23 src_7 1
 v_7_15_23 tq_23_1 1.4
 v_7_15_23 path_7_15_23 1
 v_7_15_24 cost 16
 v_7_15_24 src_7 1
 v_7_15_24 tq_24_1 1.4
 v_7_15_24 path_7_15_24 1
 v_7_15_25 cost 16
 v_7_15_25 src_7 1
 v_7_15_25 tq_25_1 1.4
 v_7_15_25 path_7_15_25 1
 v_7_15_26 cost 16
 v_7_15_26 src_7 1
 v_7_15_26 tq_26_1 1.4
 v_7_15_26 path_7_15_26 1
 v_7_15_27 cost 16
 v_7_15_27 src_7 1
 v_7_15_27 tq_27_1 1.4
 v_7_15_27 path_7_15_27 1
 v_7_15_28 cost 16
 v_7_15_28 src_7 1
 v_7_15_28 tq_28_1 1.4
 v_7_15_28 path_7_15_28 1
 v_7_15_29 cost 16
 v_7_15_29 src_7 1
 v_7_15_29 tq_29_1 1.4
 v_7_15_29 path_7_15_29 1
 v_7_15_30 cost 16
 v_7_15_30 src_7 1
 v_7_15_30 tq_30_1 1.4
 v_7_15_30 path_7_15_30 1
 v_7_15_31 cost 16
 v_7_15_31 src_7 1
 v_7_15_31 tq_31_1 1.4
 v_7_15_31 path_7_15_31 1
 v_8_15_16 cost 17
 v_8_15_16 src_8 1
 v_8_15_16 tq_16_1 1.3
 v_8_15_16 path_8_15_16 1
 v_8_15_17 cost 17
 v_8_15_17 src_8 1
 v_8_15_17 tq_17_1 1.3
 v_8_15_17 path_8_15_17 1
 v_8_15_18 cost 17
 v_8_15_18 src_8 1
 v_8_15_18 tq_18_1 1.3
 v_8_15_18 path_8_15_18 1
 v_8_15_19 cost 17
 v_8_15_19 src_8 1
 v_8_15_19 tq_19_1 1.3
 v_8_15_19 path_8_15_19 1
 v_8_15_20 cost 17
 v_8_15_20 src_8 1
 v_8_15_20 tq_20_1 1.3
 v_8_15_20 path_8_15_20 1
 v_8_15_21 cost 17
 v_8_15_21 src_8 1
 v_8_15_21 tq_21_1 1.3
 v_8_15_21 path_8_15_21 1
 v_8_15_22 cost 17
 v_8_15_22 src_8 1
 v_8_15_22 tq_22_1 1.3
 v_8_15_22 path_8_15_22 1
 v_8_15_23 cost 17
 v_8_15_23 src_8 1
 v_8_15_23 tq_23_1 1.3
 v_8_15_23 path_8_15_23 1
 v_8_15_24 cost 17
 v_8_15_24 src_8 1
 v_8_15_24 tq_24_1 1.3
 v_8_15_24 path_8_15_24 1
 v_8_15_25 cost 17
 v_8_15_25 src_8 1
 v_8_15_25 tq_25_1 1.3
 v_8_15_25 path_8_15_25 1
 v_8_15_26 cost 17
 v_8_15_26 src_8 1
 v_8_15_26 tq_26_1 1.3
 v_8_15_26 path_8_15_26 1
 v_8_15_27 cost 17
 v_8_15_27 src_8 1
 v_8_15_27 tq_27_1 1.3
 v_8_15_27 path_8_15_27 1
 v_8_15_28 cost 17
 v_8_15_28 src_8 1
 v_8_15_28 tq_28_1 1.3
 v_8_15_28 path_8_15_28 1
 v_8_15_29 cost 17
 v_8_15_29 src_8 1
 v_8_15_29 tq_29_1 1.3
 v_8_15_29 path_8_15_29 1
 v_8_15_30 cost 17
 v_8_15_30 src_8 1
 v_8_15_30 tq_30_1 1.3
 v_8_15_30 path_8_15_30 1
 v_8_15_31 cost 17
 v_8_15_31 src_8 1
 v_8_15_31 tq_31_1 1.3
 v_8_15_31 path_8_15_31 1
 v_9_15_16 cost 18
 v_9_15_16 src_9 1
 v_9_15_16 tq_16_1 1.2
 v_9_15_16 path_9_15_16 1
 v_9_15_17 cost 18
 v_9_15_17 src_9 1
 v_9_15_17 tq_17_1 1.2
 v_9_15_17 path_9_15_17 1
 v_9_15_18 cost 18
 v_9_15_18 src_9 1
 v_9_15_18 tq_18_1 1.2
 v_9_15_18 path_9_15_18 1
 v_9_15_19 cost 18
 v_9_15_19 src_9 1
 v_9_15_19 tq_19_1 1.2
 v_9_15_19 path_9_15_19 1
 v_9_15_20 cost 18
 v_9_15_20 src_9 1
 v_9_15_20 tq_20_1 1.2
 v_9_15_20 path_9_15_20 1
 v_9_15_21 cost 18
 v_9_15_21 src_9 1
 v_9_15_21 tq_21_1 1.2
 v_9_15_21 path_9_15_21 1
 v_9_15_22 cost 18
 v_9_15_22 src_9 1
 v_9_15_22 tq_22_1 1.2
 v_9_15_22 path_9_15_22 1
 v_9_15_23 cost 18
 v_9_15_23 src_9 1
 v_9_15_23 tq_23_1 1.2
 v_9_15_23 path_9_15_23 1
 v_9_15_24 cost 18
 v_9_15_24 src_9 1
 v_9_15_24 tq_24_1 1.2
 v_9_15_24 path_9_15_24 1
 v_9_15_25 cost 18
 v_9_15_25 src_9 1
 v_9_15_25 tq_25_1 1.2
 v_9_15_25 path_9_15_25 1
 v_9_15_26 cost 18
 v_9_15_26 src_9 1
 v_9_15_26 tq_26_1 1.2
 v_9_15_26 path_9_15_26 1
 v_9_15_27 cost 18
 v_9_15_27 src_9 1
 v_9_15_27 tq_27_1 1.2
 v_9_15_27 path_9_15_27 1
 v_9_15_28 cost 18
 v_9_15_28 src_9 1
 v_9_15_28 tq_28_1 1.2
 v_9_15_28 path_9_15_28 1
 v_9_15_29 cost 18
 v_9_15_29 src_9 1
 v_9_15_29 tq_29_1 1.2
 v_9_15_29 path_9_15_29 1
 v_9_15_30 cost 18
 v_9_15_30 src_9 1
 v_9_15_30 tq_30_1 1.2
 v_9_15_30 path_9_15_30 1
 v_9_15_31 cost 18
 v_9_15_31 src_9 1
 v_9_15_31 tq_31_1 1.2
 v_9_15_31 path_9_15_31 1
 v_10_15_16 cost 19
 v_10_15_16 src_10 1
 v_10_15_16 tq_16_1 1.1
 v_10_15_16 path_10_15_16 1
 v_10_15_17 cost 19
 v_10_15_17 src_10 1
 v_10_15_17 tq_17_1 1.1
 v_10_15_17 path_10_15_17 1
 v_10_15_18 cost 19
 v_10_15_18 src_10 1
 v_10_15_18 tq_18_1 1.1
 v_10_15_18 path_10_15_18 1
 v_10_15_19 cost 19
 v_10_15_19 src_10 1
 v_10_15_19 tq_19_1 1.1
 v_10_15_19 path_10_15_19 1
 v_10_15_20 cost 19
 v_10_15_20 src_10 1
 v_10_15_20 tq_20_1 1.1
 v_10_15_20 path_10_15_20 1
 v_10_15_21 cost 19
 v_10_15_21 src_10 1
 v_10_15_21 tq_21_1 1.1
 v_10_15_21 path_10_15_21 1
 v_10_15_22 cost 19
 v_10_15_22 src_10 1
 v_10_15_22 tq_22_1 1.1
 v_10_15_22 path_10_15_22 1
 v_10_15_23 cost 19
 v_10_15_23 src_10 1
 v_10_15_23 tq_23_1 1.1
 v_10_15_23 path_10_15_23 1
 v_10_15_24 cost 19
 v_10_15_24 src_10 1
 v_10_15_24 tq_24_1 1.1
 v_10_15_24 path_10_15_24 1
 v_10_15_25 cost 19
 v_10_15_25 src_10 1
 v_10_15_25 tq_25_1 1.1
 v_10_15_25 path_10_15_25 1
 v_10_15_26 cost 19
 v_10_15_26 src_10 1
 v_10_15_26 tq_26_1 1.1
 v_10_15_26 path_10_15_26 1
 v_10_15_27 cost 19
 v_10_15_27 src_10 1
 v_10_15_27 tq_27_1 1.1
 v_10_15_27 path_10_15_27 1
 v_10_15_28 cost 19
 v_10_15_28 src_10 1
 v_10_15_28 tq_28_1 1.1
 v_10_15_28 path_10_15_28 1
 v_10_15_29 cost 19
 v_10_15_29 src_10 1
 v_10_15_29 tq_29_1 1.1
 v_10_15_29 path_10_15_29 1
 v_10_15_30 cost 19
 v_10_15_30 src_10 1
 v_10_15_30 tq_30_1 1.1
 v_10_15_30 path_10_15_30 1
 v_10_15_31 cost 19
 v_10_15_31 src_10 1
 v_10_15_31 tq_31_1 1.1
 v_10_15_31 path_10_15_31 1
 v_11_15_16 cost 20
 v_11_15_16 src_11 1
 v_11_15_16 tq_16_1 1
 v_11_15_16 path_11_15_16 1
 v_11_15_17 cost 20
 v_11_15_17 src_11 1
 v_11_15_17 tq_17_1 1
 v_11_15_17 path_11_15_17 1
 v_11_15_18 cost 20
 v_11_15_18 src_11 1
 v_11_15_18 tq_18_1 1
 v_11_15_18 path_11_15_18 1
 v_11_15_19 cost 20
 v_11_15_19 src_11 1
 v_11_15_19 tq_19_1 1
 v_11_15_19 path_11_15_19 1
 v_11_15_20 cost 20
 v_11_15_20 src_11 1
 v_11_15_20 tq_20_1 1
 v_11_15_20 path_11_15_20 1
 v_11_15_21 cost 20
 v_11_15_21 src_11 1
 v_11_15_21 tq_21_1 1
 v_11_15_21 path_11_15_21 1
 v_11_15_22 cost 20
 v_11_15_22 src_11 1
 v_11_15_22 tq_22_1 1
 v_11_15_22 path_11_15_22 1
 v_11_15_23 cost 20
 v_11_15_23 src_11 1
 v_11_15_23 tq_23_1 1
 v_11_15_23 path_11_15_23 1
 v_11_15_24 cost 20
 v_11_15_24 src_11 1
 v_11_15_24 tq_24_1 1
 v_11_15_24 path_11_15_24 1
 v_11_15_25 cost 20
 v_11_15_25 src_11 1
 v_11_15_25 tq_25_1 1
 v_11_15_25 path_11_15_25 1
 v_11_15_26 cost 20
 v_11_15_26 src_11 1
 v_11_15_26 tq_26_1 1
 v_11_15_26 path_11_15_26 1
 v_11_15_27 cost 20
 v_11_15_27 src_11 1
 v_11_15_27 tq_27_1 1
 v_11_15_27 path_11_15_27 1
 v_11_15_28 cost 20
 v_11_15_28 src_11 1
 v_11_15_28 tq_28_1 1
 v_11_15_28 path_11_15_28 1
 v_11_15_29 cost 20
 v_11_15_29 src_11 1
 v_11_15_29 tq_29_1 1
 v_11_15_29 path_11_15_29 1
 v_11_15_30 cost 20
 v_11_15_30 src_11 1
 v_11_15_30 tq_30_1 1
 v_11_15_30 path_11_15_30 1
 v_11_15_31 cost 20
 v_11_15_31 src_11 1
 v_11_15_31 tq_31_1 1
 v_11_15_31 path_11_15_31 1
RHS
 rhs src_1 16
 rhs src_2 16
 rhs src_3 16
 rhs src_4 16
 rhs src_5 16
 rhs src_6 16
 rhs src_7 16
 rhs src_8 16
 rhs src_9 16
 rhs src_10 16
 rhs src_11 16
 rhs dem_16 1
 rhs dem_17 1
 rhs dem_18 1
 rhs dem_19 1
 rhs dem_20 1
 rhs dem_21 1
 rhs dem_22 1
 rhs dem_23 1
 rhs dem_24 1
 rhs dem_25 1
 rhs dem_26 1
 rhs dem_27 1
 rhs dem_28 1
 rhs dem_29 1
 rhs dem_30 1
 rhs dem_31 1
 rhs sumq_12 1
 rhs cap_12 16
 rhs sumq_13 1
 rhs cap_13 16
 rhs sumq_14 1
 rhs cap_14 16
 rhs sumq_15 1
 rhs cap_15 16
BOUNDS
 UP bnd q_1_12 1
 UP bnd q_2_12 1
 UP bnd q_3_12 1
 UP bnd q_4_12 1
 UP bnd q_8_12 1
 UP bnd q_9_12 1
 UP bnd q_10_12 1
 UP bnd q_11_12 1
 UP bnd q_2_13 1
 UP bnd q_3_13 1
 UP bnd q_4_13 1
 UP bnd q_5_13 1
 UP bnd q_7_13 1
 UP bnd q_8_13 1
 UP bnd q_9_13 1
 UP bnd q_10_13 1
 UP bnd q_1_14 1
 UP bnd q_2_14 1
 UP bnd q_3_14 1
 UP bnd q_4_14 1
 UP bnd q_5_14 1
 UP bnd q_6_14 1
 UP bnd q_7_14 1
 UP bnd q_8_14 1
 UP bnd q_4_15 1
 UP bnd q_5_15 1
 UP bnd q_6_15 1
 UP bnd q_7_15 1
 UP bnd q_8_15 1
 UP bnd q_9_15 1
 UP bnd q_10_15 1
 UP bnd q_11_15 1
 UP bnd f_12_16 1
 UP bnd f_12_17 1
 UP bnd f_12_18 1
 UP bnd f_12_19 1
 UP bnd f_12_20 1
 UP bnd f_12_21 1
 UP bnd f_12_22 1
 UP bnd f_12_23 1
 UP bnd f_12_24 1
 UP bnd f_12_25 1
 UP bnd f_12_26 1
 UP bnd f_12_27 1
 UP bnd f_12_28 1
 UP bnd f_12_29 1
 UP bnd f_12_30 1
 UP bnd f_12_31 1
 UP bnd f_13_16 1
 UP bnd f_13_17 1
 UP bnd f_13_18 1
 UP bnd f_13_19 1
 UP bnd f_13_20 1
 UP bnd f_13_21 1
 UP bnd f_13_22 1
 UP bnd f_13_23 1
 UP bnd f_13_24 1
 UP bnd f_13_25 1
 UP bnd f_13_26 1
 UP bnd f_13_27 1
 UP bnd f_13_28 1
 UP bnd f_13_29 1
 UP bnd f_13_30 1
 UP bnd f_13_31 1
 UP bnd f_14_16 1
 UP bnd f_14_17 1
 UP bnd f_14_18 1
 UP bnd f_14_19 1
 UP bnd f_14_20 1
 UP bnd f_14_21 1
 UP bnd f_14_22 1
 UP bnd f_14_23 1
 UP bnd f_14_24 1
 UP bnd f_14_25 1
 UP bnd f_14_26 1
 UP bnd f_14_27 1
 UP bnd f_14_28 1
 UP bnd f_14_29 1
 UP bnd f_14_30 1
 UP bnd f_14_31 1
 UP bnd f_15_16 1
 UP bnd f_15_17 1
 UP bnd f_15_18 1
 UP bnd f_15_19 1
 UP bnd f_15_20 1
 UP bnd f_15_21 1
 UP bnd f_15_22 1
 UP bnd f_15_23 1
 UP bnd f_15_24 1
 UP bnd f_15_25 1
 UP bnd f_15_26 1
 UP bnd f_15_27 1
 UP bnd f_15_28 1
 UP bnd f_15_29 1
 UP bnd f_15_30 1
 UP bnd f_15_31 1
 UP bnd v_1_12_16 1
 UP bnd v_1_12_17 1
 UP bnd v_1_12_18 1
 UP bnd v_1_12_19 1
 UP bnd v_1_12_20 1
 UP bnd v_1_12_21 1
 UP bnd v_1_12_22 1
 UP bnd v_1_12_23 1
 UP bnd v_1_12_24 1
 UP bnd v_1_12_25 1
 UP bnd v_1_12_26 1
 UP bnd v_1_12_27 1
 UP bnd v_1_12_28 1
 UP bnd v_1_12_29 1
 UP bnd v_1_12_30 1
 UP bnd v_1_12_31 1
 UP bnd v_2_12_16 1
 UP bnd v_2_12_17 1
 UP bnd v_2_12_18 1
 UP bnd v_2_12_19 1
 UP bnd v_2_12_20 1
 UP bnd v_2_12_21 1
 UP bnd v_2_12_22 1
 UP bnd v_2_12_23 1
 UP bnd v_2_12_24 1
 UP bnd v_2_12_25 1
 UP bnd v_2_12_26 1
 UP bnd v_2_12_27 1
 UP bnd v_2_12_28 1
 UP bnd v_2_12_29 1
 UP bnd v_2_12_30 1
 UP bnd v_2_12_31 1
 UP bnd v_3_12_16 1
 UP bnd v_3_12_17 1
 UP bnd v_3_12_18 1
 UP bnd v_3_12_19 1
 UP bnd v_3_12_20 1
 UP bnd v_3_12_21 1
 UP bnd v_3_12_22 1
 UP bnd v_3_12_23 1
 UP bnd v_3_12_24 1
 UP bnd v_3_12_25 1
 UP bnd v_3_12_26 1
 UP bnd v_3_12_27 1
 UP bnd v_3_12_28 1
 UP bnd v_3_12_29 1
 UP bnd v_3_12_30 1
 UP bnd v_3_12_31 1
 UP bnd v_4_12_16 1
 UP bnd v_4_12_17 1
 UP bnd v_4_12_18 1
 UP bnd v_4_12_19 1
 UP bnd v_4_12_20 1
 UP bnd v_4_12_21 1
 UP bnd v_4_12_22 1
 UP bnd v_4_12_23 1
 UP bnd v_4_12_24 1
 UP bnd v_4_12_25 1
 UP bnd v_4_12_26 1
 UP bnd v_4_12_27 1
 UP bnd v_4_12_28 1
 UP bnd v_4_12_29 1
 UP bnd v_4_12_30 1
 UP bnd v_4_12_31 1
 UP bnd v_8_12_16 1
 UP bnd v_8_12_17 1
 UP bnd v_8_12_18 1
 UP bnd v_8_12_19 1
 UP bnd v_8_12_20 1
 UP bnd v_8_12_21 1
 UP bnd v_8_12_22 1
 UP bnd v_8_12_23 1
 UP bnd v_8_12_24 1
 UP bnd v_8_12_25 1
 UP bnd v_8_12_26 1
 UP bnd v_8_12_27 1
 UP bnd v_8_12_28 1
 UP bnd v_8_12_29 1
 UP bnd v_8_12_30 1
 UP bnd v_8_12_31 1
 UP bnd v_9_12_16 1
 UP bnd v_9_12_17 1
 UP bnd v_9_12_18 1
 UP bnd v_9_12_19 1
 UP bnd v_9_12_20 1
 UP bnd v_9_12_21 1
 UP bnd v_9_12_22 1
 UP bnd v_9_12_23 1
 UP bnd v_9_12_24 1
 UP bnd v_9_12_25 1
 UP bnd v_9_12_26 1
 UP bnd v_9_12_27 1
 UP bnd v_9_12_28 1
 UP bnd v_9_12_29 1
 UP bnd v_9_12_30 1
 UP bnd v_9_12_31 1
 UP bnd v_10_12_16 1
 UP bnd v_10_12_17 1
 UP bnd v_10_12_18 1
 UP bnd v_10_12_19 1
 UP bnd v_10_12_20 1
 UP bnd v_10_12_21 1
 UP bnd v_10_12_22 1
 UP bnd v_10_12_23 1
 UP bnd v_10_12_24 1
 UP bnd v_10_12_25 1
 UP bnd v_10_12_26 1
 UP bnd v_10_12_27 1
 UP bnd v_10_12_28 1
 UP bnd v_10_12_29 1
 UP bnd v_10_12_30 1
 UP bnd v_10_12_31 1
 UP bnd v_11_12_16 1
 UP bnd v_11_12_17 1
 UP bnd v_11_12_18 1
 UP bnd v_11_12_19 1
 UP bnd v_11_12_20 1
 UP bnd v_11_12_21 1
 UP bnd v_11_12_22 1
 UP bnd v_11_12_23 1
 UP bnd v_11_12_24 1
 UP bnd v_11_12_25 1
 UP bnd v_11_12_26 1
 UP bnd v_11_12_27 1
 UP bnd v_11_12_28 1
 UP bnd v_11_12_29 1
 UP bnd v_11_12_30 1
 UP bnd v_11_12_31 1
 UP bnd v_2_13_16 1
 UP bnd v_2_13_17 1
 UP bnd v_2_13_18 1
 UP bnd v_2_13_19 1
 UP bnd v_2_13_20 1
 UP bnd v_2_13_21 1
 UP bnd v_2_13_22 1
 UP bnd v_2_13_23 1
 UP bnd v_2_13_24 1
 UP bnd v_2_13_25 1
 UP bnd v_2_13_26 1
 UP bnd v_2_13_27 1
 UP bnd v_2_13_28 1
 UP bnd v_2_13_29 1
 UP bnd v_2_13_30 1
 UP bnd v_2_13_31 1
 UP bnd v_3_13_16 1
 UP bnd v_3_13_17 1
 UP bnd v_3_13_18 1
 UP bnd v_3_13_19 1
 UP bnd v_3_13_20 1
 UP bnd v_3_13_21 1
 UP bnd v_3_13_22 1
 UP bnd v_3_13_23 1
 UP bnd v_3_13_24 1
 UP bnd v_3_13_25 1
 UP bnd v_3_13_26 1
 UP bnd v_3_13_27 1
 UP bnd v_3_13_28 1
 UP bnd v_3_13_29 1
 UP bnd v_3_13_30 1
 UP bnd v_3_13_31 1
 UP bnd v_4_13_16 1
 UP bnd v_4_13_17 1
 UP bnd v_4_13_18 1
 UP bnd v_4_13_19 1
 UP bnd v_4_13_20 1
 UP bnd v_4_13_21 1
 UP bnd v_4_13_22 1
 UP bnd v_4_13_23 1
 UP bnd v_4_13_24 1
 UP bnd v_4_13_25 1
 UP bnd v_4_13_26 1
 UP bnd v_4_13_27 1
 UP bnd v_4_13_28 1
 UP bnd v_4_13_29 1
 UP bnd v_4_13_30 1
 UP bnd v_4_13_31 1
 UP bnd v_5_13_16 1
 UP bnd v_5_13_17 1
 UP bnd v_5_13_18 1
 UP bnd v_5_13_19 1
 UP bnd v_5_13_20 1
 UP bnd v_5_13_21 1
 UP bnd v_5_13_22 1
 UP bnd v_5_13_23 1
 UP bnd v_5_13_24 1
 UP bnd v_5_13_25 1
 UP bnd v_5_13_26 1
 UP bnd v_5_13_27 1
 UP bnd v_5_13_28 1
 UP bnd v_5_13_29 1
 UP bnd v_5_13_30 1
 UP bnd v_5_13_31 1
 UP bnd v_7_13_16 1
 UP bnd v_7_13_17 1
 UP bnd v_7_13_18 1
 UP bnd v_7_13_19 1
 UP bnd v_7_13_20 1
 UP bnd v_7_13_21 1
 UP bnd v_7_13_22 1
 UP bnd v_7_13_23 1
 UP bnd v_7_13_24 1
 UP bnd v_7_13_25 1
 UP bnd v_7_13_26 1
 UP bnd v_7_13_27 1
 UP bnd v_7_13_28 1
 UP bnd v_7_13_29 1
 UP bnd v_7_13_30 1
 UP bnd v_7_13_31 1
 UP bnd v_8_13_16 1
 UP bnd v_8_13_17 1
 UP bnd v_8_13_18 1
 UP bnd v_8_13_19 1
 UP bnd v_8_13_20 1
 UP bnd v_8_13_21 1
 UP bnd v_8_13_22 1
 UP bnd v_8_13_23 1
 UP bnd v_8_13_24 1
 UP bnd v_8_13_25 1
 UP bnd v_8_13_26 1
 UP bnd v_8_13_27 1
 UP bnd v_8_13_28 1
 UP bnd v_8_13_29 1
 UP bnd v_8_13_30 1
 UP bnd v_8_13_31 1
 UP bnd v_9_13_16 1
 UP bnd v_9_13_17 1
 UP bnd v_9_13_18 1
 UP bnd v_9_13_19 1
 UP bnd v_9_13_20 1
 UP bnd v_9_13_21 1
 UP bnd v_9_13_22 1
 UP bnd v_9_13_23 1
 UP bnd v_9_13_24 1
 UP bnd v_9_13_25 1
 UP bnd v_9_13_26 1
 UP bnd v_9_13_27 1
 UP bnd v_9_13_28 1
 UP bnd v_9_13_29 1
 UP bnd v_9_13_30 1
 UP bnd v_9_13_31 1
 UP bnd v_10_13_16 1
 UP bnd v_10_13_17 1
 UP bnd v_10_13_18 1
 UP bnd v_10_13_19 1
 UP bnd v_10_13_20 1
 UP bnd v_10_13_21 1
 UP bnd v_10_13_22 1
 UP bnd v_10_13_23 1
 UP bnd v_10_13_24 1
 UP bnd v_10_13_25 1
 UP bnd v_10_13_26 1
 UP bnd v_10_13_27 1
 UP bnd v_10_13_28 1
 UP bnd v_10_13_29 1
 UP bnd v_10_13_30 1
 UP bnd v_10_13_31 1
 UP bnd v_1_14_16 1
 UP bnd v_1_14_17 1
 UP bnd v_1_14_18 1
 UP bnd v_1_14_19 1
 UP bnd v_1_14_20 1
 UP bnd v_1_14_21 1
 UP bnd v_1_14_22 1
 UP bnd v_1_14_23 1
 UP bnd v_1_14_24 1
 UP bnd v_1_14_25 1
 UP bnd v_1_14_26 1
 UP bnd v_1_14_27 1
 UP bnd v_1_14_28 1
 UP bnd v_1_14_29 1
 UP bnd v_1_14_30 1
 UP bnd v_1_14_31 1
 UP bnd v_2_14_16 1
 UP bnd v_2_14_17 1
 UP bnd v_2_14_18 1
 UP bnd v_2_14_19 1
 UP bnd v_2_14_20 1
 UP bnd v_2_14_21 1
 UP bnd v_2_14_22 1
 UP bnd v_2_14_23 1
 UP bnd v_2_14_24 1
 UP bnd v_2_14_25 1
 UP bnd v_2_14_26 1
 UP bnd v_2_14_27 1
 UP bnd v_2_14_28 1
 UP bnd v_2_14_29 1
 UP bnd v_2_14_30 1
 UP bnd v_2_14_31 1
 UP bnd v_3_14_16 1
 UP bnd v_3_14_17 1
 UP bnd v_3_14_18 1
 UP bnd v_3_14_19 1
 UP bnd v_3_14_20 1
 UP bnd v_3_14_21 1
 UP bnd v_3_14_22 1
 UP bnd v_3_14_23 1
 UP bnd v_3_14_24 1
 UP bnd v_3_14_25 1
 UP bnd v_3_14_26 1
 UP bnd v_3_14_27 1
 UP bnd v_3_14_28 1
 UP bnd v_3_14_29 1
 UP bnd v_3_14_30 1
 UP bnd v_3_14_31 1
 UP bnd v_4_14_16 1
 UP bnd v_4_14_17 1
 UP bnd v_4_14_18 1
 UP bnd v_4_14_19 1
 UP bnd v_4_14_20 1
 UP bnd v_4_14_21 1
 UP bnd v_4_14_22 1
 UP bnd v_4_14_23 1
 UP bnd v_4_14_24 1
 UP bnd v_4_14_25 1
 UP bnd v_4_14_26 1
 UP bnd v_4_14_27 1
 UP bnd v_4_14_28 1
 UP bnd v_4_14_29 1
 UP bnd v_4_14_30 1
 UP bnd v_4_14_31 1
 UP bnd v_5_14_16 1
 UP bnd v_5_14_17 1
 UP bnd v_5_14_18 1
 UP bnd v_5_14_19 1
 UP bnd v_5_14_20 1
 UP bnd v_5_14_21 1
 UP bnd v_5_14_22 1
 UP bnd v_5_14_23 1
 UP bnd v_5_14_24 1
 UP bnd v_5_14_25 1
 UP bnd v_5_14_26 1
 UP bnd v_5_14_27 1
 UP bnd v_5_14_28 1
 UP bnd v_5_14_29 1
 UP bnd v_5_14_30 1
 UP bnd v_5_14_31 1
 UP bnd v_6_14_16 1
 UP bnd v_6_14_17 1
 UP bnd v_6_14_18 1
 UP bnd v_6_14_19 1
 UP bnd v_6_14_20 1
 UP bnd v_6_14_21 1
 UP bnd v_6_14_22 1
 UP bnd v_6_14_23 1
 UP bnd v_6_14_24 1
 UP bnd v_6_14_25 1
 UP bnd v_6_14_26 1
 UP bnd v_6_14_27 1
 UP bnd v_6_14_28 1
 UP bnd v_6_14_29 1
 UP bnd v_6_14_30 1
 UP bnd v_6_14_31 1
 UP bnd v_7_14_16 1
 UP bnd v_7_14_17 1
 UP bnd v_7_14_18 1
 UP bnd v_7_14_19 1
 UP bnd v_7_14_20 1
 UP bnd v_7_14_21 1
 UP bnd v_7_14_22 1
 UP bnd v_7_14_23 1
 UP bnd v_7_14_24 1
 UP bnd v_7_14_25 1
 UP bnd v_7_14_26 1
 UP bnd v_7_14_27 1
 UP bnd v_7_14_28 1
 UP bnd v_7_14_29 1
 UP bnd v_7_14_30 1
 UP bnd v_7_14_31 1
 UP bnd v_8_14_16 1
 UP bnd v_8_14_17 1
 UP bnd v_8_14_18 1
 UP bnd v_8_14_19 1
 UP bnd v_8_14_20 1
 UP bnd v_8_14_21 1
 UP bnd v_8_14_22 1
 UP bnd v_8_14_23 1
 UP bnd v_8_14_24 1
 UP bnd v_8_14_25 1
 UP bnd v_8_14_26 1
 UP bnd v_8_14_27 1
 UP bnd v_8_14_28 1
 UP bnd v_8_14_29 1
 UP bnd v_8_14_30 1
 UP bnd v_8_14_31 1
 UP bnd v_4_15_16 1
 UP bnd v_4_15_17 1
 UP bnd v_4_15_18 1
 UP bnd v_4_15_19 1
 UP bnd v_4_15_20 1
 UP bnd v_4_15_21 1
 UP bnd v_4_15_22 1
 UP bnd v_4_15_23 1
 UP bnd v_4_15_24 1
 UP bnd v_4_15_25 1
 UP bnd v_4_15_26 1
 UP bnd v_4_15_27 1
 UP bnd v_4_15_28 1
 UP bnd v_4_15_29 1
 UP bnd v_4_15_30 1
 UP bnd v_4_15_31 1
 UP bnd v_5_15_16 1
 UP bnd v_5_15_17 1
 UP bnd v_5_15_18 1
 UP bnd v_5_15_19 1
 UP bnd v_5_15_20 1
 UP bnd v_5_15_21 1
 UP bnd v_5_15_22 1
 UP bnd v_5_15_23 1
 UP bnd v_5_15_24 1
 UP bnd v_5_15_25 1
 UP bnd v_5_15_26 1
 UP bnd v_5_15_27 1
 UP bnd v_5_15_28 1
 UP bnd v_5_15_29 1
 UP bnd v_5_15_30 1
 UP bnd v_5_15_31 1
 UP bnd v_6_15_16 1
 UP bnd v_6_15_17 1
 UP bnd v_6_15_18 1
 UP bnd v_6_15_19 1
 UP bnd v_6_15_20 1
 UP bnd v_6_15_21 1
 UP bnd v_6_15_22 1
 UP bnd v_6_15_23 1
 UP bnd v_6_15_24 1
 UP bnd v_6_15_25 1
 UP bnd v_6_15_26 1
 UP bnd v_6_15_27 1
 UP bnd v_6_15_28 1
 UP bnd v_6_15_29 1
 UP bnd v_6_15_30 1
 UP bnd v_6_15_31 1
 UP bnd v_7_15_16 1
 UP bnd v_7_15_17 1
 UP bnd v_7_15_18 1
 UP bnd v_7_15_19 1
 UP bnd v_7_15_20 1
 UP bnd v_7_15_21 1
 UP bnd v_7_15_22 1
 UP bnd v_7_15_23 1
 UP bnd v_7_15_24 1
 UP bnd v_7_15_25 1
 UP bnd v_7_15_26 1
 UP bnd v_7_15_27 1
 UP bnd v_7_15_28 1
 UP bnd v_7_15_29 1
 UP bnd v_7_15_30 1
 UP bnd v_7_15_31 1
 UP bnd v_8_15_16 1
 UP bnd v_8_15_17 1
 UP bnd v_8_15_18 1
 UP bnd v_8_15_19 1
 UP bnd v_8_15_20 1
 UP bnd v_8_15_21 1
 UP bnd v_8_15_22 1
 UP bnd v_8_15_23 1
 UP bnd v_8_15_24 1
 UP bnd v_8_15_25 1
 UP bnd v_8_15_26 1
 UP bnd v_8_15_27 1
 UP bnd v_8_15_28 1
 UP bnd v_8_15_29 1
 UP bnd v_8_15_30 1
 UP bnd v_8_15_31 1
 UP bnd v_9_15_16 1
 UP bnd v_9_15_17 1
 UP bnd v_9_15_18 1
 UP bnd v_9_15_19 1
 UP bnd v_9_15_20 1
 UP bnd v_9_15_21 1
 UP bnd v_9_15_22 1
 UP bnd v_9_15_23 1
 UP bnd v_9_15_24 1
 UP bnd v_9_15_25 1
 UP bnd v_9_15_26 1
 UP bnd v_9_15_27 1
 UP bnd v_9_15_28 1
 UP bnd v_9_15_29 1
 UP bnd v_9_15_30 1
 UP bnd v_9_15_31 1
 UP bnd v_10_15_16 1
 UP bnd v_10_15_17 1
 UP bnd v_10_15_18 1
 UP bnd v_10_15_19 1
 UP bnd v_10_15_20 1
 UP bnd v_10_15_21 1
 UP bnd v_10_15_22 1
 UP bnd v_10_15_23 1
 UP bnd v_10_15_24 1
 UP bnd v_10_15_25 1
 UP bnd v_10_15_26 1
 UP bnd v_10_15_27 1
 UP bnd v_10_15_28 1
 UP bnd v_10_15_29 1
 UP bnd v_10_15_30 1
 UP bnd v_10_15_31 1
 UP bnd v_11_15_16 1
 UP bnd v_11_15_17 1
 UP bnd v_11_15_18 1
 UP bnd v_11_15_19 1
 UP bnd v_11_15_20 1
 UP bnd v_11_15_21 1
 UP bnd v_11_15_22 1
 UP bnd v_11_15_23 1
 UP bnd v_11_15_24 1
 UP bnd v_11_15_25 1
 UP bnd v_11_15_26 1
 UP bnd v_11_15_27 1
 UP bnd v_11_15_28 1
 UP bnd v_11_15_29 1
 UP bnd v_11_15_30 1
 UP bnd v_11_15_31 1
QCMATRIX path_1_12_16
 f_12_16 q_1_12 -0.5
 q_1_12 f_12_16 -0.5
QCMATRIX path_1_12_17
 f_12_17 q_1_12 -0.5
 q_1_12 f_12_17 -0.5
QCMATRIX path_1_12_18
 f_12_18 q_1_12 -0.5
 q_1_12 f_12_18 -0.5
QCMATRIX path_1_12_19
 f_12_19 q_1_12 -0.5
 q_1_12 f_12_19 -0.5
QCMATRIX path_1_12_20
 f_12_20 q_1_12 -0.5
 q_1_12 f_12_20 -0.5
QCMATRIX path_1_12_21
 f_12_21 q_1_12 -0.5
 q_1_12 f_12_21 -0.5
QCMATRIX path_1_12_22
 f_12_22 q_1_12 -0.5
 q_1_12 f_12_22 -0.5
QCMATRIX path_1_12_23
 f_12_23 q_1_12 -0.5
 q_1_12 f_12_23 -0.5
QCMATRIX path_1_12_24
 f_12_24 q_1_12 -0.5
 q_1_12 f_12_24 -0.5
QCMATRIX path_1_12_25
 f_12_25 q_1_12 -0.5
 q_1_12 f_12_25 -0.5
QCMATRIX path_1_12_26
 f_12_26 q_1_12 -0.5
 q_1_12 f_12_26 -0.5
QCMATRIX path_1_12_27
 f_12_27 q_1_12 -0.5
 q_1_12 f_12_27 -0.5
QCMATRIX path_1_12_28
 f_12_28 q_1_12 -0.5
 q_1_12 f_12_28 -0.5
QCMATRIX path_1_12_29
 f_12_29 q_1_12 -0.5
 q_1_12 f_12_29 -0.5
QCMATRIX path_1_12_30
 f_12_30 q_1_12 -0.5
 q_1_12 f_12_30 -0.5
QCMATRIX path_1_12_31
 f_12_31 q_1_12 -0.5
 q_1_12 f_12_31 -0.5
QCMATRIX path_2_12_16
 f_12_16 q_2_12 -0.5
 q_2_12 f_12_16 -0.5
QCMATRIX path_2_12_17
 f_12_17 q_2_12 -0.5
 q_2_12 f_12_17 -0.5
QCMATRIX path_2_12_18
 f_12_18 q_2_12 -0.5
 q_2_12 f_12_18 -0.5
QCMATRIX path_2_12_19
 f_12_19 q_2_12 -0.5
 q_2_12 f_12_19 -0.5
QCMATRIX path_2_12_20
 f_12_20 q_2_12 -0.5
 q_2_12 f_12_20 -0.5
QCMATRIX path_2_12_21
 f_12_21 q_2_12 -0.5
 q_2_12 f_12_21 -0.5
QCMATRIX path_2_12_22
 f_12_22 q_2_12 -0.5
 q_2_12 f_12_22 -0.5
QCMATRIX path_2_12_23
 f_12_23 q_2_12 -0.5
 q_2_12 f_12_23 -0.5
QCMATRIX path_2_12_24
 f_12_24 q_2_12 -0.5
 q_2_12 f_12_24 -0.5
QCMATRIX path_2_12_25
 f_12_25 q_2_12 -0.5
 q_2_12 f_12_25 -0.5
QCMATRIX path_2_12_26
 f_12_26 q_2_12 -0.5
 q_2_12 f_12_26 -0.5
QCMATRIX path_2_12_27
 f_12_27 q_2_12 -0.5
 q_2_12 f_12_27 -0.5
QCMATRIX path_2_12_28
 f_12_28 q_2_12 -0.5
 q_2_12 f_12_28 -0.5
QCMATRIX path_2_12_29
 f_12_29 q_2_12 -0.5
 q_2_12 f_12_29 -0.5
QCMATRIX path_2_12_30
 f_12_30 q_2_12 -0.5
 q_2_12 f_12_30 -0.5
QCMATRIX path_2_12_31
 f_12_31 q_2_12 -0.5
 q_2_12 f_12_31 -0.5
QCMATRIX path_3_12_16
 f_12_16 q_3_12 -0.5
 q_3_12 f_12_16 -0.5
QCMATRIX path_3_12_17
 f_12_17 q_3_12 -0.5
 q_3_12 f_12_17 -0.5
QCMATRIX path_3_12_18
 f_12_18 q_3_12 -0.5
 q_3_12 f_12_18 -0.5
QCMATRIX path_3_12_19
 f_12_19 q_3_12 -0.5
 q_3_12 f_12_19 -0.5
QCMATRIX path_3_12_20
 f_12_20 q_3_12 -0.5
 q_3_12 f_12_20 -0.5
QCMATRIX path_3_12_21
 f_12_21 q_3_12 -0.5
 q_3_12 f_12_21 -0.5
QCMATRIX path_3_12_22
 f_12_22 q_3_12 -0.5
 q_3_12 f_12_22 -0.5
QCMATRIX path_3_12_23
 f_12_23 q_3_12 -0.5
 q_3_12 f_12_23 -0.5
QCMATRIX path_3_12_24
 f_12_24 q_3_12 -0.5
 q_3_12 f_12_24 -0.5
QCMATRIX path_3_12_25
 f_12_25 q_3_12 -0.5
 q_3_12 f_12_25 -0.5
QCMATRIX path_3_12_26
 f_12_26 q_3_12 -0.5
 q_3_12 f_12_26 -0.5
QCMATRIX path_3_12_27
 f_12_27 q_3_12 -0.5
 q_3_12 f_12_27 -0.5
QCMATRIX path_3_12_28
 f_12_28 q_3_12 -0.5
 q_3_12 f_12_28 -0.5
QCMATRIX path_3_12_29
 f_12_29 q_3_12 -0.5
 q_3_12 f_12_29 -0.5
QCMATRIX path_3_12_30
 f_12_30 q_3_12 -0.5
 q_3_12 f_12_30 -0.5
QCMATRIX path_3_12_31
 f_12_31 q_3_12 -0.5
 q_3_12 f_12_31 -0.5
QCMATRIX path_4_12_16
 f_12_16 q_4_12 -0.5
 q_4_12 f_12_16 -0.5
QCMATRIX path_4_12_17
 f_12_17 q_4_12 -0.5
 q_4_12 f_12_17 -0.5
QCMATRIX path_4_12_18
 f_12_18 q_4_12 -0.5
 q_4_12 f_12_18 -0.5
QCMATRIX path_4_12_19
 f_12_19 q_4_12 -0.5
 q_4_12 f_12_19 -0.5
QCMATRIX path_4_12_20
 f_12_20 q_4_12 -0.5
 q_4_12 f_12_20 -0.5
QCMATRIX path_4_12_21
 f_12_21 q_4_12 -0.5
 q_4_12 f_12_21 -0.5
QCMATRIX path_4_12_22
 f_12_22 q_4_12 -0.5
 q_4_12 f_12_22 -0.5
QCMATRIX path_4_12_23
 f_12_23 q_4_12 -0.5
 q_4_12 f_12_23 -0.5
QCMATRIX path_4_12_24
 f_12_24 q_4_12 -0.5
 q_4_12 f_12_24 -0.5
QCMATRIX path_4_12_25
 f_12_25 q_4_12 -0.5
 q_4_12 f_12_25 -0.5
QCMATRIX path_4_12_26
 f_12_26 q_4_12 -0.5
 q_4_12 f_12_26 -0.5
QCMATRIX path_4_12_27
 f_12_27 q_4_12 -0.5
 q_4_12 f_12_27 -0.5
QCMATRIX path_4_12_28
 f_12_28 q_4_12 -0.5
 q_4_12 f_12_28 -0.5
QCMATRIX path_4_12_29
 f_12_29 q_4_12 -0.5
 q_4_12 f_12_29 -0.5
QCMATRIX path_4_12_30
 f_12_30 q_4_12 -0.5
 q_4_12 f_12_30 -0.5
QCMATRIX path_4_12_31
 f_12_31 q_4_12 -0.5
 q_4_12 f_12_31 -0.5
QCMATRIX path_8_12_16
 f_12_16 q_8_12 -0.5
 q_8_12 f_12_16 -0.5
QCMATRIX path_8_12_17
 f_12_17 q_8_12 -0.5
 q_8_12 f_12_17 -0.5
QCMATRIX path_8_12_18
 f_12_18 q_8_12 -0.5
 q_8_12 f_12_18 -0.5
QCMATRIX path_8_12_19
 f_12_19 q_8_12 -0.5
 q_8_12 f_12_19 -0.5
QCMATRIX path_8_12_20
 f_12_20 q_8_12 -0.5
 q_8_12 f_12_20 -0.5
QCMATRIX path_8_12_21
 f_12_21 q_8_12 -0.5
 q_8_12 f_12_21 -0.5
QCMATRIX path_8_12_22
 f_12_22 q_8_12 -0.5
 q_8_12 f_12_22 -0.5
QCMATRIX path_8_12_23
 f_12_23 q_8_12 -0.5
 q_8_12 f_12_23 -0.5
QCMATRIX path_8_12_24
 f_12_24 q_8_12 -0.5
 q_8_12 f_12_24 -0.5
QCMATRIX path_8_12_25
 f_12_25 q_8_12 -0.5
 q_8_12 f_12_25 -0.5
QCMATRIX path_8_12_26
 f_12_26 q_8_12 -0.5
 q_8_12 f_12_26 -0.5
QCMATRIX path_8_12_27
 f_12_27 q_8_12 -0.5
 q_8_12 f_12_27 -0.5
QCMATRIX path_8_12_28
 f_12_28 q_8_12 -0.5
 q_8_12 f_12_28 -0.5
QCMATRIX path_8_12_29
 f_12_29 q_8_12 -0.5
 q_8_12 f_12_29 -0.5
QCMATRIX path_8_12_30
 f_12_30 q_8_12 -0.5
 q_8_12 f_12_30 -0.5
QCMATRIX path_8_12_31
 f_12_31 q_8_12 -0.5
 q_8_12 f_12_31 -0.5
QCMATRIX path_9_12_16
 f_12_16 q_9_12 -0.5
 q_9_12 f_12_16 -0.5
QCMATRIX path_9_12_17
 f_12_17 q_9_12 -0.5
 q_9_12 f_12_17 -0.5
QCMATRIX path_9_12_18
 f_12_18 q_9_12 -0.5
 q_9_12 f_12_18 -0.5
QCMATRIX path_9_12_19
 f_12_19 q_9_12 -0.5
 q_9_12 f_12_19 -0.5
QCMATRIX path_9_12_20
 f_12_20 q_9_12 -0.5
 q_9_12 f_12_20 -0.5
QCMATRIX path_9_12_21
 f_12_21 q_9_12 -0.5
 q_9_12 f_12_21 -0.5
QCMATRIX path_9_12_22
 f_12_22 q_9_12 -0.5
 q_9_12 f_12_22 -0.5
QCMATRIX path_9_12_23
 f_12_23 q_9_12 -0.5
 q_9_12 f_12_23 -0.5
QCMATRIX path_9_12_24
 f_12_24 q_9_12 -0.5
 q_9_12 f_12_24 -0.5
QCMATRIX path_9_12_25
 f_12_25 q_9_12 -0.5
 q_9_12 f_12_25 -0.5
QCMATRIX path_9_12_26
 f_12_26 q_9_12 -0.5
 q_9_12 f_12_26 -0.5
QCMATRIX path_9_12_27
 f_12_27 q_9_12 -0.5
 q_9_12 f_12_27 -0.5
QCMATRIX path_9_12_28
 f_12_28 q_9_12 -0.5
 q_9_12 f_12_28 -0.5
QCMATRIX path_9_12_29
 f_12_29 q_9_12 -0.5
 q_9_12 f_12_29 -0.5
QCMATRIX path_9_12_30
 f_12_30 q_9_12 -0.5
 q_9_12 f_12_30 -0.5
QCMATRIX path_9_12_31
 f_12_31 q_9_12 -0.5
 q_9_12 f_12_31 -0.5
QCMATRIX path_10_12_16
 f_12_16 q_10_12 -0.5
 q_10_12 f_12_16 -0.5
QCMATRIX path_10_12_17
 f_12_17 q_10_12 -0.5
 q_10_12 f_12_17 -0.5
QCMATRIX path_10_12_18
 f_12_18 q_10_12 -0.5
 q_10_12 f_12_18 -0.5
QCMATRIX path_10_12_19
 f_12_19 q_10_12 -0.5
 q_10_12 f_12_19 -0.5
QCMATRIX path_10_12_20
 f_12_20 q_10_12 -0.5
 q_10_12 f_12_20 -0.5
QCMATRIX path_10_12_21
 f_12_21 q_10_12 -0.5
 q_10_12 f_12_21 -0.5
QCMATRIX path_10_12_22
 f_12_22 q_10_12 -0.5
 q_10_12 f_12_22 -0.5
QCMATRIX path_10_12_23
 f_12_23 q_10_12 -0.5
 q_10_12 f_12_23 -0.5
QCMATRIX path_10_12_24
 f_12_24 q_10_12 -0.5
 q_10_12 f_12_24 -0.5
QCMATRIX path_10_12_25
 f_12_25 q_10_12 -0.5
 q_10_12 f_12_25 -0.5
QCMATRIX path_10_12_26
 f_12_26 q_10_12 -0.5
 q_10_12 f_12_26 -0.5
QCMATRIX path_10_12_27
 f_12_27 q_10_12 -0.5
 q_10_12 f_12_27 -0.5
QCMATRIX path_10_12_28
 f_12_28 q_10_12 -0.5
 q_10_12 f_12_28 -0.5
QCMATRIX path_10_12_29
 f_12_29 q_10_12 -0.5
 q_10_12 f_12_29 -0.5
QCMATRIX path_10_12_30
 f_12_30 q_10_12 -0.5
 q_10_12 f_12_30 -0.5
QCMATRIX path_10_12_31
 f_12_31 q_10_12 -0.5
 q_10_12 f_12_31 -0.5
QCMATRIX path_11_12_16
 f_12_16 q_11_12 -0.5
 q_11_12 f_12_16 -0.5
QCMATRIX path_11_12_17
 f_12_17 q_11_12 -0.5
 q_11_12 f_12_17 -0.5
QCMATRIX path_11_12_18
 f_12_18 q_11_12 -0.5
 q_11_12 f_12_18 -0.5
QCMATRIX path_11_12_19
 f_12_19 q_11_12 -0.5
 q_11_12 f_12_19 -0.5
QCMATRIX path_11_12_20
 f_12_20 q_11_12 -0.5
 q_11_12 f_12_20 -0.5
QCMATRIX path_11_12_21
 f_12_21 q_11_12 -0.5
 q_11_12 f_12_21 -0.5
QCMATRIX path_11_12_22
 f_12_22 q_11_12 -0.5
 q_11_12 f_12_22 -0.5
QCMATRIX path_11_12_23
 f_12_23 q_11_12 -0.5
 q_11_12 f_12_23 -0.5
QCMATRIX path_11_12_24
 f_12_24 q_11_12 -0.5
 q_11_12 f_12_24 -0.5
QCMATRIX path_11_12_25
 f_12_25 q_11_12 -0.5
 q_11_12 f_12_25 -0.5
QCMATRIX path_11_12_26
 f_12_26 q_11_12 -0.5
 q_11_12 f_12_26 -0.5
QCMATRIX path_11_12_27
 f_12_27 q_11_12 -0.5
 q_11_12 f_12_27 -0.5
QCMATRIX path_11_12_28
 f_12_28 q_11_12 -0.5
 q_11_12 f_12_28 -0.5
QCMATRIX path_11_12_29
 f_12_29 q_11_12 -0.5
 q_11_12 f_12_29 -0.5
QCMATRIX path_11_12_30
 f_12_30 q_11_12 -0.5
 q_11_12 f_12_30 -0.5
QCMATRIX path_11_12_31
 f_12_31 q_11_12 -0.5
 q_11_12 f_12_31 -0.5
QCMATRIX path_2_13_16
 f_13_16 q_2_13 -0.5
 q_2_13 f_13_16 -0.5
QCMATRIX path_2_13_17
 f_13_17 q_2_13 -0.5
 q_2_13 f_13_17 -0.5
QCMATRIX path_2_13_18
 f_13_18 q_2_13 -0.5
 q_2_13 f_13_18 -0.5
QCMATRIX path_2_13_19
 f_13_19 q_2_13 -0.5
 q_2_13 f_13_19 -0.5
QCMATRIX path_2_13_20
 f_13_20 q_2_13 -0.5
 q_2_13 f_13_20 -0.5
QCMATRIX path_2_13_21
 f_13_21 q_2_13 -0.5
 q_2_13 f_13_21 -0.5
QCMATRIX path_2_13_22
 f_13_22 q_2_13 -0.5
 q_2_13 f_13_22 -0.5
QCMATRIX path_2_13_23
 f_13_23 q_2_13 -0.5
 q_2_13 f_13_23 -0.5
QCMATRIX path_2_13_24
 f_13_24 q_2_13 -0.5
 q_2_13 f_13_24 -0.5
QCMATRIX path_2_13_25
 f_13_25 q_2_13 -0.5
 q_2_13 f_13_25 -0.5
QCMATRIX path_2_13_26
 f_13_26 q_2_13 -0.5
 q_2_13 f_13_26 -0.5
QCMATRIX path_2_13_27
 f_13_27 q_2_13 -0.5
 q_2_13 f_13_27 -0.5
QCMATRIX path_2_13_28
 f_13_28 q_2_13 -0.5
 q_2_13 f_13_28 -0.5
QCMATRIX path_2_13_29
 f_13_29 q_2_13 -0.5
 q_2_13 f_13_29 -0.5
QCMATRIX path_2_13_30
 f_13_30 q_2_13 -0.5
 q_2_13 f_13_30 -0.5
QCMATRIX path_2_13_31
 f_13_31 q_2_13 -0.5
 q_2_13 f_13_31 -0.5
QCMATRIX path_3_13_16
 f_13_16 q_3_13 -0.5
 q_3_13 f_13_16 -0.5
QCMATRIX path_3_13_17
 f_13_17 q_3_13 -0.5
 q_3_13 f_13_17 -0.5
QCMATRIX path_3_13_18
 f_13_18 q_3_13 -0.5
 q_3_13 f_13_18 -0.5
QCMATRIX path_3_13_19
 f_13_19 q_3_13 -0.5
 q_3_13 f_13_19 -0.5
QCMATRIX path_3_13_20
 f_13_20 q_3_13 -0.5
 q_3_13 f_13_20 -0.5
QCMATRIX path_3_13_21
 f_13_21 q_3_13 -0.5
 q_3_13 f_13_21 -0.5
QCMATRIX path_3_13_22
 f_13_22 q_3_13 -0.5
 q_3_13 f_13_22 -0.5
QCMATRIX path_3_13_23
 f_13_23 q_3_13 -0.5
 q_3_13 f_13_23 -0.5
QCMATRIX path_3_13_24
 f_13_24 q_3_13 -0.5
 q_3_13 f_13_24 -0.5
QCMATRIX path_3_13_25
 f_13_25 q_3_13 -0.5
 q_3_13 f_13_25 -0.5
QCMATRIX path_3_13_26
 f_13_26 q_3_13 -0.5
 q_3_13 f_13_26 -0.5
QCMATRIX path_3_13_27
 f_13_27 q_3_13 -0.5
 q_3_13 f_13_27 -0.5
QCMATRIX path_3_13_28
 f_13_28 q_3_13 -0.5
 q_3_13 f_13_28 -0.5
QCMATRIX path_3_13_29
 f_13_29 q_3_13 -0.5
 q_3_13 f_13_29 -0.5
QCMATRIX path_3_13_30
 f_13_30 q_3_13 -0.5
 q_3_13 f_13_30 -0.5
QCMATRIX path_3_13_31
 f_13_31 q_3_13 -0.5
 q_3_13 f_13_31 -0.5
QCMATRIX path_4_13_16
 f_13_16 q_4_13 -0.5
 q_4_13 f_13_16 -0.5
QCMATRIX path_4_13_17
 f_13_17 q_4_13 -0.5
 q_4_13 f_13_17 -0.5
QCMATRIX path_4_13_18
 f_13_18 q_4_13 -0.5
 q_4_13 f_13_18 -0.5
QCMATRIX path_4_13_19
 f_13_19 q_4_13 -0.5
 q_4_13 f_13_19 -0.5
QCMATRIX path_4_13_20
 f_13_20 q_4_13 -0.5
 q_4_13 f_13_20 -0.5
QCMATRIX path_4_13_21
 f_13_21 q_4_13 -0.5
 q_4_13 f_13_21 -0.5
QCMATRIX path_4_13_22
 f_13_22 q_4_13 -0.5
 q_4_13 f_13_22 -0.5
QCMATRIX path_4_13_23
 f_13_23 q_4_13 -0.5
 q_4_13 f_13_23 -0.5
QCMATRIX path_4_13_24
 f_13_24 q_4_13 -0.5
 q_4_13 f_13_24 -0.5
QCMATRIX path_4_13_25
 f_13_25 q_4_13 -0.5
 q_4_13 f_13_25 -0.5
QCMATRIX path_4_13_26
 f_13_26 q_4_13 -0.5
 q_4_13 f_13_26 -0.5
QCMATRIX path_4_13_27
 f_13_27 q_4_13 -0.5
 q_4_13 f_13_27 -0.5
QCMATRIX path_4_13_28
 f_13_28 q_4_13 -0.5
 q_4_13 f_13_28 -0.5
QCMATRIX path_4_13_29
 f_13_29 q_4_13 -0.5
 q_4_13 f_13_29 -0.5
QCMATRIX path_4_13_30
 f_13_30 q_4_13 -0.5
 q_4_13 f_13_30 -0.5
QCMATRIX path_4_13_31
 f_13_31 q_4_13 -0.5
 q_4_13 f_13_31 -0.5
QCMATRIX path_5_13_16
 f_13_16 q_5_13 -0.5
 q_5_13 f_13_16 -0.5
QCMATRIX path_5_13_17
 f_13_17 q_5_13 -0.5
 q_5_13 f_13_17 -0.5
QCMATRIX path_5_13_18
 f_13_18 q_5_13 -0.5
 q_5_13 f_13_18 -0.5
QCMATRIX path_5_13_19
 f_13_19 q_5_13 -0.5
 q_5_13 f_13_19 -0.5
QCMATRIX path_5_13_20
 f_13_20 q_5_13 -0.5
 q_5_13 f_13_20 -0.5
QCMATRIX path_5_13_21
 f_13_21 q_5_13 -0.5
 q_5_13 f_13_21 -0.5
QCMATRIX path_5_13_22
 f_13_22 q_5_13 -0.5
 q_5_13 f_13_22 -0.5
QCMATRIX path_5_13_23
 f_13_23 q_5_13 -0.5
 q_5_13 f_13_23 -0.5
QCMATRIX path_5_13_24
 f_13_24 q_5_13 -0.5
 q_5_13 f_13_24 -0.5
QCMATRIX path_5_13_25
 f_13_25 q_5_13 -0.5
 q_5_13 f_13_25 -0.5
QCMATRIX path_5_13_26
 f_13_26 q_5_13 -0.5
 q_5_13 f_13_26 -0.5
QCMATRIX path_5_13_27
 f_13_27 q_5_13 -0.5
 q_5_13 f_13_27 -0.5
QCMATRIX path_5_13_28
 f_13_28 q_5_13 -0.5
 q_5_13 f_13_28 -0.5
QCMATRIX path_5_13_29
 f_13_29 q_5_13 -0.5
 q_5_13 f_13_29 -0.5
QCMATRIX path_5_13_30
 f_13_30 q_5_13 -0.5
 q_5_13 f_13_30 -0.5
QCMATRIX path_5_13_31
 f_13_31 q_5_13 -0.5
 q_5_13 f_13_31 -0.5
QCMATRIX path_7_13_16
 f_13_16 q_7_13 -0.5
 q_7_13 f_13_16 -0.5
QCMATRIX path_7_13_17
 f_13_17 q_7_13 -0.5
 q_7_13 f_13_17 -0.5
QCMATRIX path_7_13_18
 f_13_18 q_7_13 -0.5
 q_7_13 f_13_18 -0.5
QCMATRIX path_7_13_19
 f_13_19 q_7_13 -0.5
 q_7_13 f_13_19 -0.5
QCMATRIX path_7_13_20
 f_13_20 q_7_13 -0.5
 q_7_13 f_13_20 -0.5
QCMATRIX path_7_13_21
 f_13_21 q_7_13 -0.5
 q_7_13 f_13_21 -0.5
QCMATRIX path_7_13_22
 f_13_22 q_7_13 -0.5
 q_7_13 f_13_22 -0.5
QCMATRIX path_7_13_23
 f_13_23 q_7_13 -0.5
 q_7_13 f_13_23 -0.5
QCMATRIX path_7_13_24
 f_13_24 q_7_13 -0.5
 q_7_13 f_13_24 -0.5
QCMATRIX path_7_13_25
 f_13_25 q_7_13 -0.5
 q_7_13 f_13_25 -0.5
QCMATRIX path_7_13_26
 f_13_26 q_7_13 -0.5
 q_7_13 f_13_26 -0.5
QCMATRIX path_7_13_27
 f_13_27 q_7_13 -0.5
 q_7_13 f_13_27 -0.5
QCMATRIX path_7_13_28
 f_13_28 q_7_13 -0.5
 q_7_13 f_13_28 -0.5
QCMATRIX path_7_13_29
 f_13_29 q_7_13 -0.5
 q_7_13 f_13_29 -0.5
QCMATRIX path_7_13_30
 f_13_30 q_7_13 -0.5
 q_7_13 f_13_30 -0.5
QCMATRIX path_7_13_31
 f_13_31 q_7_13 -0.5
 q_7_13 f_13_31 -0.5
QCMATRIX path_8_13_16
 f_13_16 q_8_13 -0.5
 q_8_13 f_13_16 -0.5
QCMATRIX path_8_13_17
 f_13_17 q_8_13 -0.5
 q_8_13 f_13_17 -0.5
QCMATRIX path_8_13_18
 f_13_18 q_8_13 -0.5
 q_8_13 f_13_18 -0.5
QCMATRIX path_8_13_19
 f_13_19 q_8_13 -0.5
 q_8_13 f_13_19 -0.5
QCMATRIX path_8_13_20
 f_13_20 q_8_13 -0.5
 q_8_13 f_13_20 -0.5
QCMATRIX path_8_13_21
 f_13_21 q_8_13 -0.5
 q_8_13 f_13_21 -0.5
QCMATRIX path_8_13_22
 f_13_22 q_8_13 -0.5
 q_8_13 f_13_22 -0.5
QCMATRIX path_8_13_23
 f_13_23 q_8_13 -0.5
 q_8_13 f_13_23 -0.5
QCMATRIX path_8_13_24
 f_13_24 q_8_13 -0.5
 q_8_13 f_13_24 -0.5
QCMATRIX path_8_13_25
 f_13_25 q_8_13 -0.5
 q_8_13 f_13_25 -0.5
QCMATRIX path_8_13_26
 f_13_26 q_8_13 -0.5
 q_8_13 f_13_26 -0.5
QCMATRIX path_8_13_27
 f_13_27 q_8_13 -0.5
 q_8_13 f_13_27 -0.5
QCMATRIX path_8_13_28
 f_13_28 q_8_13 -0.5
 q_8_13 f_13_28 -0.5
QCMATRIX path_8_13_29
 f_13_29 q_8_13 -0.5
 q_8_13 f_13_29 -0.5
QCMATRIX path_8_13_30
 f_13_30 q_8_13 -0.5
 q_8_13 f_13_30 -0.5
QCMATRIX path_8_13_31
 f_13_31 q_8_13 -0.5
 q_8_13 f_13_31 -0.5
QCMATRIX path_9_13_16
 f_13_16 q_9_13 -0.5
 q_9_13 f_13_16 -0.5
QCMATRIX path_9_13_17
 f_13_17 q_9_13 -0.5
 q_9_13 f_13_17 -0.5
QCMATRIX path_9_13_18
 f_13_18 q_9_13 -0.5
 q_9_13 f_13_18 -0.5
QCMATRIX path_9_13_19
 f_13_19 q_9_13 -0.5
 q_9_13 f_13_19 -0.5
QCMATRIX path_9_13_20
 f_13_20 q_9_13 -0.5
 q_9_13 f_13_20 -0.5
QCMATRIX path_9_13_21
 f_13_21 q_9_13 -0.5
 q_9_13 f_13_21 -0.5
QCMATRIX path_9_13_22
 f_13_22 q_9_13 -0.5
 q_9_13 f_13_22 -0.5
QCMATRIX path_9_13_23
 f_13_23 q_9_13 -0.5
 q_9_13 f_13_23 -0.5
QCMATRIX path_9_13_24
 f_13_24 q_9_13 -0.5
 q_9_13 f_13_24 -0.5
QCMATRIX path_9_13_25
 f_13_25 q_9_13 -0.5
 q_9_13 f_13_25 -0.5
QCMATRIX path_9_13_26
 f_13_26 q_9_13 -0.5
 q_9_13 f_13_26 -0.5
QCMATRIX path_9_13_27
 f_13_27 q_9_13 -0.5
 q_9_13 f_13_27 -0.5
QCMATRIX path_9_13_28
 f_13_28 q_9_13 -0.5
 q_9_13 f_13_28 -0.5
QCMATRIX path_9_13_29
 f_13_29 q_9_13 -0.5
 q_9_13 f_13_29 -0.5
QCMATRIX path_9_13_30
 f_13_30 q_9_13 -0.5
 q_9_13 f_13_30 -0.5
QCMATRIX path_9_13_31
 f_13_31 q_9_13 -0.5
 q_9_13 f_13_31 -0.5
QCMATRIX path_10_13_16
 f_13_16 q_10_13 -0.5
 q_10_13 f_13_16 -0.5
QCMATRIX path_10_13_17
 f_13_17 q_10_13 -0.5
 q_10_13 f_13_17 -0.5
QCMATRIX path_10_13_18
 f_13_18 q_10_13 -0.5
 q_10_13 f_13_18 -0.5
QCMATRIX path_10_13_19
 f_13_19 q_10_13 -0.5
 q_10_13 f_13_19 -0.5
QCMATRIX path_10_13_20
 f_13_20 q_10_13 -0.5
 q_10_13 f_13_20 -0.5
QCMATRIX path_10_13_21
 f_13_21 q_10_13 -0.5
 q_10_13 f_13_21 -0.5
QCMATRIX path_10_13_22
 f_13_22 q_10_13 -0.5
 q_10_13 f_13_22 -0.5
QCMATRIX path_10_13_23
 f_13_23 q_10_13 -0.5
 q_10_13 f_13_23 -0.5
QCMATRIX path_10_13_24
 f_13_24 q_10_13 -0.5
 q_10_13 f_13_24 -0.5
QCMATRIX path_10_13_25
 f_13_25 q_10_13 -0.5
 q_10_13 f_13_25 -0.5
QCMATRIX path_10_13_26
 f_13_26 q_10_13 -0.5
 q_10_13 f_13_26 -0.5
QCMATRIX path_10_13_27
 f_13_27 q_10_13 -0.5
 q_10_13 f_13_27 -0.5
QCMATRIX path_10_13_28
 f_13_28 q_10_13 -0.5
 q_10_13 f_13_28 -0.5
QCMATRIX path_10_13_29
 f_13_29 q_10_13 -0.5
 q_10_13 f_13_29 -0.5
QCMATRIX path_10_13_30
 f_13_30 q_10_13 -0.5
 q_10_13 f_13_30 -0.5
QCMATRIX path_10_13_31
 f_13_31 q_10_13 -0.5
 q_10_13 f_13_31 -0.5
QCMATRIX path_1_14_16
 f_14_16 q_1_14 -0.5
 q_1_14 f_14_16 -0.5
QCMATRIX path_1_14_17
 f_14_17 q_1_14 -0.5
 q_1_14 f_14_17 -0.5
QCMATRIX path_1_14_18
 f_14_18 q_1_14 -0.5
 q_1_14 f_14_18 -0.5
QCMATRIX path_1_14_19
 f_14_19 q_1_14 -0.5
 q_1_14 f_14_19 -0.5
QCMATRIX path_1_14_20
 f_14_20 q_1_14 -0.5
 q_1_14 f_14_20 -0.5
QCMATRIX path_1_14_21
 f_14_21 q_1_14 -0.5
 q_1_14 f_14_21 -0.5
QCMATRIX path_1_14_22
 f_14_22 q_1_14 -0.5
 q_1_14 f_14_22 -0.5
QCMATRIX path_1_14_23
 f_14_23 q_1_14 -0.5
 q_1_14 f_14_23 -0.5
QCMATRIX path_1_14_24
 f_14_24 q_1_14 -0.5
 q_1_14 f_14_24 -0.5
QCMATRIX path_1_14_25
 f_14_25 q_1_14 -0.5
 q_1_14 f_14_25 -0.5
QCMATRIX path_1_14_26
 f_14_26 q_1_14 -0.5
 q_1_14 f_14_26 -0.5
QCMATRIX path_1_14_27
 f_14_27 q_1_14 -0.5
 q_1_14 f_14_27 -0.5
QCMATRIX path_1_14_28
 f_14_28 q_1_14 -0.5
 q_1_14 f_14_28 -0.5
QCMATRIX path_1_14_29
 f_14_29 q_1_14 -0.5
 q_1_14 f_14_29 -0.5
QCMATRIX path_1_14_30
 f_14_30 q_1_14 -0.5
 q_1_14 f_14_30 -0.5
QCMATRIX path_1_14_31
 f_14_31 q_1_14 -0.5
 q_1_14 f_14_31 -0.5
QCMATRIX path_2_14_16
 f_14_16 q_2_14 -0.5
 q_2_14 f_14_16 -0.5
QCMATRIX path_2_14_17
 f_14_17 q_2_14 -0.5
 q_2_14 f_14_17 -0.5
QCMATRIX path_2_14_18
 f_14_18 q_2_14 -0.5
 q_2_14 f_14_18 -0.5
QCMATRIX path_2_14_19
 f_14_19 q_2_14 -0.5
 q_2_14 f_14_19 -0.5
QCMATRIX path_2_14_20
 f_14_20 q_2_14 -0.5
 q_2_14 f_14_20 -0.5
QCMATRIX path_2_14_21
 f_14_21 q_2_14 -0.5
 q_2_14 f_14_21 -0.5
QCMATRIX path_2_14_22
 f_14_22 q_2_14 -0.5
 q_2_14 f_14_22 -0.5
QCMATRIX path_2_14_23
 f_14_23 q_2_14 -0.5
 q_2_14 f_14_23 -0.5
QCMATRIX path_2_14_24
 f_14_24 q_2_14 -0.5
 q_2_14 f_14_24 -0.5
QCMATRIX path_2_14_25
 f_14_25 q_2_14 -0.5
 q_2_14 f_14_25 -0.5
QCMATRIX path_2_14_26
 f_14_26 q_2_14 -0.5
 q_2_14 f_14_26 -0.5
QCMATRIX path_2_14_27
 f_14_27 q_2_14 -0.5
 q_2_14 f_14_27 -0.5
QCMATRIX path_2_14_28
 f_14_28 q_2_14 -0.5
 q_2_14 f_14_28 -0.5
QCMATRIX path_2_14_29
 f_14_29 q_2_14 -0.5
 q_2_14 f_14_29 -0.5
QCMATRIX path_2_14_30
 f_14_30 q_2_14 -0.5
 q_2_14 f_14_30 -0.5
QCMATRIX path_2_14_31
 f_14_31 q_2_14 -0.5
 q_2_14 f_14_31 -0.5
QCMATRIX path_3_14_16
 f_14_16 q_3_14 -0.5
 q_3_14 f_14_16 -0.5
QCMATRIX path_3_14_17
 f_14_17 q_3_14 -0.5
 q_3_14 f_14_17 -0.5
QCMATRIX path_3_14_18
 f_14_18 q_3_14 -0.5
 q_3_14 f_14_18 -0.5
QCMATRIX path_3_14_19
 f_14_19 q_3_14 -0.5
 q_3_14 f_14_19 -0.5
QCMATRIX path_3_14_20
 f_14_20 q_3_14 -0.5
 q_3_14 f_14_20 -0.5
QCMATRIX path_3_14_21
 f_14_21 q_3_14 -0.5
 q_3_14 f_14_21 -0.5
QCMATRIX path_3_14_22
 f_14_22 q_3_14 -0.5
 q_3_14 f_14_22 -0.5
QCMATRIX path_3_14_23
 f_14_23 q_3_14 -0.5
 q_3_14 f_14_23 -0.5
QCMATRIX path_3_14_24
 f_14_24 q_3_14 -0.5
 q_3_14 f_14_24 -0.5
QCMATRIX path_3_14_25
 f_14_25 q_3_14 -0.5
 q_3_14 f_14_25 -0.5
QCMATRIX path_3_14_26
 f_14_26 q_3_14 -0.5
 q_3_14 f_14_26 -0.5
QCMATRIX path_3_14_27
 f_14_27 q_3_14 -0.5
 q_3_14 f_14_27 -0.5
QCMATRIX path_3_14_28
 f_14_28 q_3_14 -0.5
 q_3_14 f_14_28 -0.5
QCMATRIX path_3_14_29
 f_14_29 q_3_14 -0.5
 q_3_14 f_14_29 -0.5
QCMATRIX path_3_14_30
 f_14_30 q_3_14 -0.5
 q_3_14 f_14_30 -0.5
QCMATRIX path_3_14_31
 f_14_31 q_3_14 -0.5
 q_3_14 f_14_31 -0.5
QCMATRIX path_4_14_16
 f_14_16 q_4_14 -0.5
 q_4_14 f_14_16 -0.5
QCMATRIX path_4_14_17
 f_14_17 q_4_14 -0.5
 q_4_14 f_14_17 -0.5
QCMATRIX path_4_14_18
 f_14_18 q_4_14 -0.5
 q_4_14 f_14_18 -0.5
QCMATRIX path_4_14_19
 f_14_19 q_4_14 -0.5
 q_4_14 f_14_19 -0.5
QCMATRIX path_4_14_20
 f_14_20 q_4_14 -0.5
 q_4_14 f_14_20 -0.5
QCMATRIX path_4_14_21
 f_14_21 q_4_14 -0.5
 q_4_14 f_14_21 -0.5
QCMATRIX path_4_14_22
 f_14_22 q_4_14 -0.5
 q_4_14 f_14_22 -0.5
QCMATRIX path_4_14_23
 f_14_23 q_4_14 -0.5
 q_4_14 f_14_23 -0.5
QCMATRIX path_4_14_24
 f_14_24 q_4_14 -0.5
 q_4_14 f_14_24 -0.5
QCMATRIX path_4_14_25
 f_14_25 q_4_14 -0.5
 q_4_14 f_14_25 -0.5
QCMATRIX path_4_14_26
 f_14_26 q_4_14 -0.5
 q_4_14 f_14_26 -0.5
QCMATRIX path_4_14_27
 f_14_27 q_4_14 -0.5
 q_4_14 f_14_27 -0.5
QCMATRIX path_4_14_28
 f_14_28 q_4_14 -0.5
 q_4_14 f_14_28 -0.5
QCMATRIX path_4_14_29
 f_14_29 q_4_14 -0.5
 q_4_14 f_14_29 -0.5
QCMATRIX path_4_14_30
 f_14_30 q_4_14 -0.5
 q_4_14 f_14_30 -0.5
QCMATRIX path_4_14_31
 f_14_31 q_4_14 -0.5
 q_4_14 f_14_31 -0.5
QCMATRIX path_5_14_16
 f_14_16 q_5_14 -0.5
 q_5_14 f_14_16 -0.5
QCMATRIX path_5_14_17
 f_14_17 q_5_14 -0.5
 q_5_14 f_14_17 -0.5
QCMATRIX path_5_14_18
 f_14_18 q_5_14 -0.5
 q_5_14 f_14_18 -0.5
QCMATRIX path_5_14_19
 f_14_19 q_5_14 -0.5
 q_5_14 f_14_19 -0.5
QCMATRIX path_5_14_20
 f_14_20 q_5_14 -0.5
 q_5_14 f_14_20 -0.5
QCMATRIX path_5_14_21
 f_14_21 q_5_14 -0.5
 q_5_14 f_14_21 -0.5
QCMATRIX path_5_14_22
 f_14_22 q_5_14 -0.5
 q_5_14 f_14_22 -0.5
QCMATRIX path_5_14_23
 f_14_23 q_5_14 -0.5
 q_5_14 f_14_23 -0.5
QCMATRIX path_5_14_24
 f_14_24 q_5_14 -0.5
 q_5_14 f_14_24 -0.5
QCMATRIX path_5_14_25
 f_14_25 q_5_14 -0.5
 q_5_14 f_14_25 -0.5
QCMATRIX path_5_14_26
 f_14_26 q_5_14 -0.5
 q_5_14 f_14_26 -0.5
QCMATRIX path_5_14_27
 f_14_27 q_5_14 -0.5
 q_5_14 f_14_27 -0.5
QCMATRIX path_5_14_28
 f_14_28 q_5_14 -0.5
 q_5_14 f_14_28 -0.5
QCMATRIX path_5_14_29
 f_14_29 q_5_14 -0.5
 q_5_14 f_14_29 -0.5
QCMATRIX path_5_14_30
 f_14_30 q_5_14 -0.5
 q_5_14 f_14_30 -0.5
QCMATRIX path_5_14_31
 f_14_31 q_5_14 -0.5
 q_5_14 f_14_31 -0.5
QCMATRIX path_6_14_16
 f_14_16 q_6_14 -0.5
 q_6_14 f_14_16 -0.5
QCMATRIX path_6_14_17
 f_14_17 q_6_14 -0.5
 q_6_14 f_14_17 -0.5
QCMATRIX path_6_14_18
 f_14_18 q_6_14 -0.5
 q_6_14 f_14_18 -0.5
QCMATRIX path_6_14_19
 f_14_19 q_6_14 -0.5
 q_6_14 f_14_19 -0.5
QCMATRIX path_6_14_20
 f_14_20 q_6_14 -0.5
 q_6_14 f_14_20 -0.5
QCMATRIX path_6_14_21
 f_14_21 q_6_14 -0.5
 q_6_14 f_14_21 -0.5
QCMATRIX path_6_14_22
 f_14_22 q_6_14 -0.5
 q_6_14 f_14_22 -0.5
QCMATRIX path_6_14_23
 f_14_23 q_6_14 -0.5
 q_6_14 f_14_23 -0.5
QCMATRIX path_6_14_24
 f_14_24 q_6_14 -0.5
 q_6_14 f_14_24 -0.5
QCMATRIX path_6_14_25
 f_14_25 q_6_14 -0.5
 q_6_14 f_14_25 -0.5
QCMATRIX path_6_14_26
 f_14_26 q_6_14 -0.5
 q_6_14 f_14_26 -0.5
QCMATRIX path_6_14_27
 f_14_27 q_6_14 -0.5
 q_6_14 f_14_27 -0.5
QCMATRIX path_6_14_28
 f_14_28 q_6_14 -0.5
 q_6_14 f_14_28 -0.5
QCMATRIX path_6_14_29
 f_14_29 q_6_14 -0.5
 q_6_14 f_14_29 -0.5
QCMATRIX path_6_14_30
 f_14_30 q_6_14 -0.5
 q_6_14 f_14_30 -0.5
QCMATRIX path_6_14_31
 f_14_31 q_6_14 -0.5
 q_6_14 f_14_31 -0.5
QCMATRIX path_7_14_16
 f_14_16 q_7_14 -0.5
 q_7_14 f_14_16 -0.5
QCMATRIX path_7_14_17
 f_14_17 q_7_14 -0.5
 q_7_14 f_14_17 -0.5
QCMATRIX path_7_14_18
 f_14_18 q_7_14 -0.5
 q_7_14 f_14_18 -0.5
QCMATRIX path_7_14_19
 f_14_19 q_7_14 -0.5
 q_7_14 f_14_19 -0.5
QCMATRIX path_7_14_20
 f_14_20 q_7_14 -0.5
 q_7_14 f_14_20 -0.5
QCMATRIX path_7_14_21
 f_14_21 q_7_14 -0.5
 q_7_14 f_14_21 -0.5
QCMATRIX path_7_14_22
 f_14_22 q_7_14 -0.5
 q_7_14 f_14_22 -0.5
QCMATRIX path_7_14_23
 f_14_23 q_7_14 -0.5
 q_7_14 f_14_23 -0.5
QCMATRIX path_7_14_24
 f_14_24 q_7_14 -0.5
 q_7_14 f_14_24 -0.5
QCMATRIX path_7_14_25
 f_14_25 q_7_14 -0.5
 q_7_14 f_14_25 -0.5
QCMATRIX path_7_14_26
 f_14_26 q_7_14 -0.5
 q_7_14 f_14_26 -0.5
QCMATRIX path_7_14_27
 f_14_27 q_7_14 -0.5
 q_7_14 f_14_27 -0.5
QCMATRIX path_7_14_28
 f_14_28 q_7_14 -0.5
 q_7_14 f_14_28 -0.5
QCMATRIX path_7_14_29
 f_14_29 q_7_14 -0.5
 q_7_14 f_14_29 -0.5
QCMATRIX path_7_14_30
 f_14_30 q_7_14 -0.5
 q_7_14 f_14_30 -0.5
QCMATRIX path_7_14_31
 f_14_31 q_7_14 -0.5
 q_7_14 f_14_31 -0.5
QCMATRIX path_8_14_16
 f_14_16 q_8_14 -0.5
 q_8_14 f_14_16 -0.5
QCMATRIX path_8_14_17
 f_14_17 q_8_14 -0.5
 q_8_14 f_14_17 -0.5
QCMATRIX path_8_14_18
 f_14_18 q_8_14 -0.5
 q_8_14 f_14_18 -0.5
QCMATRIX path_8_14_19
 f_14_19 q_8_14 -0.5
 q_8_14 f_14_19 -0.5
QCMATRIX path_8_14_20
 f_14_20 q_8_14 -0.5
 q_8_14 f_14_20 -0.5
QCMATRIX path_8_14_21
 f_14_21 q_8_14 -0.5
 q_8_14 f_14_21 -0.5
QCMATRIX path_8_14_22
 f_14_22 q_8_14 -0.5
 q_8_14 f_14_22 -0.5
QCMATRIX path_8_14_23
 f_14_23 q_8_14 -0.5
 q_8_14 f_14_23 -0.5
QCMATRIX path_8_14_24
 f_14_24 q_8_14 -0.5
 q_8_14 f_14_24 -0.5
QCMATRIX path_8_14_25
 f_14_25 q_8_14 -0.5
 q_8_14 f_14_25 -0.5
QCMATRIX path_8_14_26
 f_14_26 q_8_14 -0.5
 q_8_14 f_14_26 -0.5
QCMATRIX path_8_14_27
 f_14_27 q_8_14 -0.5
 q_8_14 f_14_27 -0.5
QCMATRIX path_8_14_28
 f_14_28 q_8_14 -0.5
 q_8_14 f_14_28 -0.5
QCMATRIX path_8_14_29
 f_14_29 q_8_14 -0.5
 q_8_14 f_14_29 -0.5
QCMATRIX path_8_14_30
 f_14_30 q_8_14 -0.5
 q_8_14 f_14_30 -0.5
QCMATRIX path_8_14_31
 f_14_31 q_8_14 -0.5
 q_8_14 f_14_31 -0.5
QCMATRIX path_4_15_16
 f_15_16 q_4_15 -0.5
 q_4_15 f_15_16 -0.5
QCMATRIX path_4_15_17
 f_15_17 q_4_15 -0.5
 q_4_15 f_15_17 -0.5
QCMATRIX path_4_15_18
 f_15_18 q_4_15 -0.5
 q_4_15 f_15_18 -0.5
QCMATRIX path_4_15_19
 f_15_19 q_4_15 -0.5
 q_4_15 f_15_19 -0.5
QCMATRIX path_4_15_20
 f_15_20 q_4_15 -0.5
 q_4_15 f_15_20 -0.5
QCMATRIX path_4_15_21
 f_15_21 q_4_15 -0.5
 q_4_15 f_15_21 -0.5
QCMATRIX path_4_15_22
 f_15_22 q_4_15 -0.5
 q_4_15 f_15_22 -0.5
QCMATRIX path_4_15_23
 f_15_23 q_4_15 -0.5
 q_4_15 f_15_23 -0.5
QCMATRIX path_4_15_24
 f_15_24 q_4_15 -0.5
 q_4_15 f_15_24 -0.5
QCMATRIX path_4_15_25
 f_15_25 q_4_15 -0.5
 q_4_15 f_15_25 -0.5
QCMATRIX path_4_15_26
 f_15_26 q_4_15 -0.5
 q_4_15 f_15_26 -0.5
QCMATRIX path_4_15_27
 f_15_27 q_4_15 -0.5
 q_4_15 f_15_27 -0.5
QCMATRIX path_4_15_28
 f_15_28 q_4_15 -0.5
 q_4_15 f_15_28 -0.5
QCMATRIX path_4_15_29
 f_15_29 q_4_15 -0.5
 q_4_15 f_15_29 -0.5
QCMATRIX path_4_15_30
 f_15_30 q_4_15 -0.5
 q_4_15 f_15_30 -0.5
QCMATRIX path_4_15_31
 f_15_31 q_4_15 -0.5
 q_4_15 f_15_31 -0.5
QCMATRIX path_5_15_16
 f_15_16 q_5_15 -0.5
 q_5_15 f_15_16 -0.5
QCMATRIX path_5_15_17
 f_15_17 q_5_15 -0.5
 q_5_15 f_15_17 -0.5
QCMATRIX path_5_15_18
 f_15_18 q_5_15 -0.5
 q_5_15 f_15_18 -0.5
QCMATRIX path_5_15_19
 f_15_19 q_5_15 -0.5
 q_5_15 f_15_19 -0.5
QCMATRIX path_5_15_20
 f_15_20 q_5_15 -0.5
 q_5_15 f_15_20 -0.5
QCMATRIX path_5_15_21
 f_15_21 q_5_15 -0.5
 q_5_15 f_15_21 -0.5
QCMATRIX path_5_15_22
 f_15_22 q_5_15 -0.5
 q_5_15 f_15_22 -0.5
QCMATRIX path_5_15_23
 f_15_23 q_5_15 -0.5
 q_5_15 f_15_23 -0.5
QCMATRIX path_5_15_24
 f_15_24 q_5_15 -0.5
 q_5_15 f_15_24 -0.5
QCMATRIX path_5_15_25
 f_15_25 q_5_15 -0.5
 q_5_15 f_15_25 -0.5
QCMATRIX path_5_15_26
 f_15_26 q_5_15 -0.5
 q_5_15 f_15_26 -0.5
QCMATRIX path_5_15_27
 f_15_27 q_5_15 -0.5
 q_5_15 f_15_27 -0.5
QCMATRIX path_5_15_28
 f_15_28 q_5_15 -0.5
 q_5_15 f_15_28 -0.5
QCMATRIX path_5_15_29
 f_15_29 q_5_15 -0.5
 q_5_15 f_15_29 -0.5
QCMATRIX path_5_15_30
 f_15_30 q_5_15 -0.5
 q_5_15 f_15_30 -0.5
QCMATRIX path_5_15_31
 f_15_31 q_5_15 -0.5
 q_5_15 f_15_31 -0.5
QCMATRIX path_6_15_16
 f_15_16 q_6_15 -0.5
 q_6_15 f_15_16 -0.5
QCMATRIX path_6_15_17
 f_15_17 q_6_15 -0.5
 q_6_15 f_15_17 -0.5
QCMATRIX path_6_15_18
 f_15_18 q_6_15 -0.5
 q_6_15 f_15_18 -0.5
QCMATRIX path_6_15_19
 f_15_19 q_6_15 -0.5
 q_6_15 f_15_19 -0.5
QCMATRIX path_6_15_20
 f_15_20 q_6_15 -0.5
 q_6_15 f_15_20 -0.5
QCMATRIX path_6_15_21
 f_15_21 q_6_15 -0.5
 q_6_15 f_15_21 -0.5
QCMATRIX path_6_15_22
 f_15_22 q_6_15 -0.5
 q_6_15 f_15_22 -0.5
QCMATRIX path_6_15_23
 f_15_23 q_6_15 -0.5
 q_6_15 f_15_23 -0.5
QCMATRIX path_6_15_24
 f_15_24 q_6_15 -0.5
 q_6_15 f_15_24 -0.5
QCMATRIX path_6_15_25
 f_15_25 q_6_15 -0.5
 q_6_15 f_15_25 -0.5
QCMATRIX path_6_15_26
 f_15_26 q_6_15 -0.5
 q_6_15 f_15_26 -0.5
QCMATRIX path_6_15_27
 f_15_27 q_6_15 -0.5
 q_6_15 f_15_27 -0.5
QCMATRIX path_6_15_28
 f_15_28 q_6_15 -0.5
 q_6_15 f_15_28 -0.5
QCMATRIX path_6_15_29
 f_15_29 q_6_15 -0.5
 q_6_15 f_15_29 -0.5
QCMATRIX path_6_15_30
 f_15_30 q_6_15 -0.5
 q_6_15 f_15_30 -0.5
QCMATRIX path_6_15_31
 f_15_31 q_6_15 -0.5
 q_6_15 f_15_31 -0.5
QCMATRIX path_7_15_16
 f_15_16 q_7_15 -0.5
 q_7_15 f_15_16 -0.5
QCMATRIX path_7_15_17
 f_15_17 q_7_15 -0.5
 q_7_15 f_15_17 -0.5
QCMATRIX path_7_15_18
 f_15_18 q_7_15 -0.5
 q_7_15 f_15_18 -0.5
QCMATRIX path_7_15_19
 f_15_19 q_7_15 -0.5
 q_7_15 f_15_19 -0.5
QCMATRIX path_7_15_20
 f_15_20 q_7_15 -0.5
 q_7_15 f_15_20 -0.5
QCMATRIX path_7_15_21
 f_15_21 q_7_15 -0.5
 q_7_15 f_15_21 -0.5
QCMATRIX path_7_15_22
 f_15_22 q_7_15 -0.5
 q_7_15 f_15_22 -0.5
QCMATRIX path_7_15_23
 f_15_23 q_7_15 -0.5
 q_7_15 f_15_23 -0.5
QCMATRIX path_7_15_24
 f_15_24 q_7_15 -0.5
 q_7_15 f_15_24 -0.5
QCMATRIX path_7_15_25
 f_15_25 q_7_15 -0.5
 q_7_15 f_15_25 -0.5
QCMATRIX path_7_15_26
 f_15_26 q_7_15 -0.5
 q_7_15 f_15_26 -0.5
QCMATRIX path_7_15_27
 f_15_27 q_7_15 -0.5
 q_7_15 f_15_27 -0.5
QCMATRIX path_7_15_28
 f_15_28 q_7_15 -0.5
 q_7_15 f_15_28 -0.5
QCMATRIX path_7_15_29
 f_15_29 q_7_15 -0.5
 q_7_15 f_15_29 -0.5
QCMATRIX path_7_15_30
 f_15_30 q_7_15 -0.5
 q_7_15 f_15_30 -0.5
QCMATRIX path_7_15_31
 f_15_31 q_7_15 -0.5
 q_7_15 f_15_31 -0.5
QCMATRIX path_8_15_16
 f_15_16 q_8_15 -0.5
 q_8_15 f_15_16 -0.5
QCMATRIX path_8_15_17
 f_15_17 q_8_15 -0.5
 q_8_15 f_15_17 -0.5
QCMATRIX path_8_15_18
 f_15_18 q_8_15 -0.5
 q_8_15 f_15_18 -0.5
QCMATRIX path_8_15_19
 f_15_19 q_8_15 -0.5
 q_8_15 f_15_19 -0.5
QCMATRIX path_8_15_20
 f_15_20 q_8_15 -0.5
 q_8_15 f_15_20 -0.5
QCMATRIX path_8_15_21
 f_15_21 q_8_15 -0.5
 q_8_15 f_15_21 -0.5
QCMATRIX path_8_15_22
 f_15_22 q_8_15 -0.5
 q_8_15 f_15_22 -0.5
QCMATRIX path_8_15_23
 f_15_23 q_8_15 -0.5
 q_8_15 f_15_23 -0.5
QCMATRIX path_8_15_24
 f_15_24 q_8_15 -0.5
 q_8_15 f_15_24 -0.5
QCMATRIX path_8_15_25
 f_15_25 q_8_15 -0.5
 q_8_15 f_15_25 -0.5
QCMATRIX path_8_15_26
 f_15_26 q_8_15 -0.5
 q_8_15 f_15_26 -0.5
QCMATRIX path_8_15_27
 f_15_27 q_8_15 -0.5
 q_8_15 f_15_27 -0.5
QCMATRIX path_8_15_28
 f_15_28 q_8_15 -0.5
 q_8_15 f_15_28 -0.5
QCMATRIX path_8_15_29
 f_15_29 q_8_15 -0.5
 q_8_15 f_15_29 -0.5
QCMATRIX path_8_15_30
 f_15_30 q_8_15 -0.5
 q_8_15 f_15_30 -0.5
QCMATRIX path_8_15_31
 f_15_31 q_8_15 -0.5
 q_8_15 f_15_31 -0.5
QCMATRIX path_9_15_16
 f_15_16 q_9_15 -0.5
 q_9_15 f_15_16 -0.5
QCMATRIX path_9_15_17
 f_15_17 q_9_15 -0.5
 q_9_15 f_15_17 -0.5
QCMATRIX path_9_15_18
 f_15_18 q_9_15 -0.5
 q_9_15 f_15_18 -0.5
QCMATRIX path_9_15_19
 f_15_19 q_9_15 -0.5
 q_9_15 f_15_19 -0.5
QCMATRIX path_9_15_20
 f_15_20 q_9_15 -0.5
 q_9_15 f_15_20 -0.5
QCMATRIX path_9_15_21
 f_15_21 q_9_15 -0.5
 q_9_15 f_15_21 -0.5
QCMATRIX path_9_15_22
 f_15_22 q_9_15 -0.5
 q_9_15 f_15_22 -0.5
QCMATRIX path_9_15_23
 f_15_23 q_9_15 -0.5
 q_9_15 f_15_23 -0.5
QCMATRIX path_9_15_24
 f_15_24 q_9_15 -0.5
 q_9_15 f_15_24 -0.5
QCMATRIX path_9_15_25
 f_15_25 q_9_15 -0.5
 q_9_15 f_15_25 -0.5
QCMATRIX path_9_15_26
 f_15_26 q_9_15 -0.5
 q_9_15 f_15_26 -0.5
QCMATRIX path_9_15_27
 f_15_27 q_9_15 -0.5
 q_9_15 f_15_27 -0.5
QCMATRIX path_9_15_28
 f_15_28 q_9_15 -0.5
 q_9_15 f_15_28 -0.5
QCMATRIX path_9_15_29
 f_15_29 q_9_15 -0.5
 q_9_15 f_15_29 -0.5
QCMATRIX path_9_15_30
 f_15_30 q_9_15 -0.5
 q_9_15 f_15_30 -0.5
QCMATRIX path_9_15_31
 f_15_31 q_9_15 -0.5
 q_9_15 f_15_31 -0.5
QCMATRIX path_10_15_16
 f_15_16 q_10_15 -0.5
 q_10_15 f_15_16 -0.5
QCMATRIX path_10_15_17
 f_15_17 q_10_15 -0.5
 q_10_15 f_15_17 -0.5
QCMATRIX path_10_15_18
 f_15_18 q_10_15 -0.5
 q_10_15 f_15_18 -0.5
QCMATRIX path_10_15_19
 f_15_19 q_10_15 -0.5
 q_10_15 f_15_19 -0.5
QCMATRIX path_10_15_20
 f_15_20 q_10_15 -0.5
 q_10_15 f_15_20 -0.5
QCMATRIX path_10_15_21
 f_15_21 q_10_15 -0.5
 q_10_15 f_15_21 -0.5
QCMATRIX path_10_15_22
 f_15_22 q_10_15 -0.5
 q_10_15 f_15_22 -0.5
QCMATRIX path_10_15_23
 f_15_23 q_10_15 -0.5
 q_10_15 f_15_23 -0.5
QCMATRIX path_10_15_24
 f_15_24 q_10_15 -0.5
 q_10_15 f_15_24 -0.5
QCMATRIX path_10_15_25
 f_15_25 q_10_15 -0.5
 q_10_15 f_15_25 -0.5
QCMATRIX path_10_15_26
 f_15_26 q_10_15 -0.5
 q_10_15 f_15_26 -0.5
QCMATRIX path_10_15_27
 f_15_27 q_10_15 -0.5
 q_10_15 f_15_27 -0.5
QCMATRIX path_10_15_28
 f_15_28 q_10_15 -0.5
 q_10_15 f_15_28 -0.5
QCMATRIX path_10_15_29
 f_15_29 q_10_15 -0.5
 q_10_15 f_15_29 -0.5
QCMATRIX path_10_15_30
 f_15_30 q_10_15 -0.5
 q_10_15 f_15_30 -0.5
QCMATRIX path_10_15_31
 f_15_31 q_10_15 -0.5
 q_10_15 f_15_31 -0.5
QCMATRIX path_11_15_16
 f_15_16 q_11_15 -0.5
 q_11_15 f_15_16 -0.5
QCMATRIX path_11_15_17
 f_15_17 q_11_15 -0.5
 q_11_15 f_15_17 -0.5
QCMATRIX path_11_15_18
 f_15_18 q_11_15 -0.5
 q_11_15 f_15_18 -0.5
QCMATRIX path_11_15_19
 f_15_19 q_11_15 -0.5
 q_11_15 f_15_19 -0.5
QCMATRIX path_11_15_20
 f_15_20 q_11_15 -0.5
 q_11_15 f_15_20 -0.5
QCMATRIX path_11_15_21
 f_15_21 q_11_15 -0.5
 q_11_15 f_15_21 -0.5
QCMATRIX path_11_15_22
 f_15_22 q_11_15 -0.5
 q_11_15 f_15_22 -0.5
QCMATRIX path_11_15_23
 f_15_23 q_11_15 -0.5
 q_11_15 f_15_23 -0.5
QCMATRIX path_11_15_24
 f_15_24 q_11_15 -0.5
 q_11_15 f_15_24 -0.5
QCMATRIX path_11_15_25
 f_15_25 q_11_15 -0.5
 q_11_15 f_15_25 -0.5
QCMATRIX path_11_15_26
 f_15_26 q_11_15 -0.5
 q_11_15 f_15_26 -0.5
QCMATRIX path_11_15_27
 f_15_27 q_11_15 -0.5
 q_11_15 f_15_27 -0.5
QCMATRIX path_11_15_28
 f_15_28 q_11_15 -0.5
 q_11_15 f_15_28 -0.5
QCMATRIX path_11_15_29
 f_15_29 q_11_15 -0.5
 q_11_15 f_15_29 -0.5
QCMATRIX path_11_15_30
 f_15_30 q_11_15 -0.5
 q_11_15 f_15_30 -0.5
QCMATRIX path_11_15_31
 f_15_31 q_11_15 -0.5
 q_11_15 f_15_31 -0.5
ENDATA
