* SANKHYA pooling instance foulds4, P-formulation (#516).
* GENERATED by bench/runners/pooling_models.py from data/pooling/instances/foulds4.json; do not edit.
* Data: Alfaki and Haugland, standard pooling instance Foulds4.gms
* (sha256 76ddbb450810d8923ef9e9ec33e56add694466d1b94d334bb782faee80c93ae7).
* Source paper and published optimum: data/pooling/reference.json.
* Minimize total arc cost. Quadratic rows use QCMATRIX (full symmetric, no 1/2).
*
* P-formulation (Haverly 1978; Tawarmalani and Sahinidis 2002, ch. 9)
NAME foulds4_p
ROWS
 N cost
 L src_1
 L src_2
 L src_3
 L src_4
 L src_5
 L src_6
 L src_7
 L src_8
 L src_9
 L src_10
 L src_11
 L dem_20
 L dem_21
 L dem_22
 L dem_23
 L dem_24
 L dem_25
 L dem_26
 L dem_27
 L dem_28
 L dem_29
 L dem_30
 L dem_31
 L dem_32
 L dem_33
 L dem_34
 L dem_35
 E bal_12
 L cap_12
 E pq_12_1
 E bal_13
 L cap_13
 E pq_13_1
 E bal_14
 L cap_14
 E pq_14_1
 E bal_15
 L cap_15
 E pq_15_1
 E bal_16
 L cap_16
 E pq_16_1
 E bal_17
 L cap_17
 E pq_17_1
 E bal_18
 L cap_18
 E pq_18_1
 E bal_19
 L cap_19
 E pq_19_1
 L tq_20_1
 L tq_21_1
 L tq_22_1
 L tq_23_1
 L tq_24_1
 L tq_25_1
 L tq_26_1
 L tq_27_1
 L tq_28_1
 L tq_29_1
 L tq_30_1
 L tq_31_1
 L tq_32_1
 L tq_33_1
 L tq_34_1
 L tq_35_1
COLUMNS
 f_1_13 cost 10
 f_1_13 src_1 1
 f_1_13 bal_13 1
 f_1_13 cap_13 1
 f_1_13 pq_13_1 2
 f_2_12 cost 11
 f_2_12 src_2 1
 f_2_12 bal_12 1
 f_2_12 cap_12 1
 f_2_12 pq_12_1 1.9
 f_2_19 cost 11
 f_2_19 src_2 1
 f_2_19 bal_19 1
 f_2_19 cap_19 1
 f_2_19 pq_19_1 1.9
 f_3_17 cost 12
 f_3_17 src_3 1
 f_3_17 bal_17 1
 f_3_17 cap_17 1
 f_3_17 pq_17_1 1.8
 f_3_18 cost 12
 f_3_18 src_3 1
 f_3_18 bal_18 1
 f_3_18 cap_18 1
 f_3_18 pq_18_1 1.8
 f_3_19 cost 12
 f_3_19 src_3 1
 f_3_19 bal_19 1
 f_3_19 cap_19 1
 f_3_19 pq_19_1 1.8
 f_4_13 cost 13
 f_4_13 src_4 1
 f_4_13 bal_13 1
 f_4_13 cap_13 1
 f_4_13 pq_13_1 1.7
 f_4_16 cost 13
 f_4_16 src_4 1
 f_4_16 bal_16 1
 f_4_16 cap_16 1
 f_4_16 pq_16_1 1.7
 f_4_18 cost 13
 f_4_18 src_4 1
 f_4_18 bal_18 1
 f_4_18 cap_18 1
 f_4_18 pq_18_1 1.7
 f_4_19 cost 13
 f_4_19 src_4 1
 f_4_19 bal_19 1
 f_4_19 cap_19 1
 f_4_19 pq_19_1 1.7
 f_5_12 cost 14
 f_5_12 src_5 1
 f_5_12 bal_12 1
 f_5_12 cap_12 1
 f_5_12 pq_12_1 1.6
 f_5_15 cost 14
 f_5_15 src_5 1
 f_5_15 bal_15 1
 f_5_15 cap_15 1
 f_5_15 pq_15_1 1.6
 f_5_17 cost 14
 f_5_17 src_5 1
 f_5_17 bal_17 1
 f_5_17 cap_17 1
 f_5_17 pq_17_1 1.6
 f_5_18 cost 14
 f_5_18 src_5 1
 f_5_18 bal_18 1
 f_5_18 cap_18 1
 f_5_18 pq_18_1 1.6
 f_6_14 cost 15
 f_6_14 src_6 1
 f_6_14 bal_14 1
 f_6_14 cap_14 1
 f_6_14 pq_14_1 1.5
 f_6_15 cost 15
 f_6_15 src_6 1
 f_6_15 bal_15 1
 f_6_15 cap_15 1
 f_6_15 pq_15_1 1.5
 f_6_16 cost 15
 f_6_16 src_6 1
 f_6_16 bal_16 1
 f_6_16 cap_16 1
 f_6_16 pq_16_1 1.5
 f_6_17 cost 15
 f_6_17 src_6 1
 f_6_17 bal_17 1
 f_6_17 cap_17 1
 f_6_17 pq_17_1 1.5
 f_7_13 cost 16
 f_7_13 src_7 1
 f_7_13 bal_13 1
 f_7_13 cap_13 1
 f_7_13 pq_13_1 1.4
 f_7_14 cost 16
 f_7_14 src_7 1
 f_7_14 bal_14 1
 f_7_14 cap_14 1
 f_7_14 pq_14_1 1.4
 f_7_16 cost 16
 f_7_16 src_7 1
 f_7_16 bal_16 1
 f_7_16 cap_16 1
 f_7_16 pq_16_1 1.4
 f_7_19 cost 16
 f_7_19 src_7 1
 f_7_19 bal_19 1
 f_7_19 cap_19 1
 f_7_19 pq_19_1 1.4
 f_8_12 cost 17
 f_8_12 src_8 1
 f_8_12 bal_12 1
 f_8_12 cap_12 1
 f_8_12 pq_12_1 1.3
 f_8_15 cost 17
 f_8_15 src_8 1
 f_8_15 bal_15 1
 f_8_15 cap_15 1
 f_8_15 pq_15_1 1.3
 f_8_17 cost 17
 f_8_17 src_8 1
 f_8_17 bal_17 1
 f_8_17 cap_17 1
 f_8_17 pq_17_1 1.3
 f_8_18 cost 17
 f_8_18 src_8 1
 f_8_18 bal_18 1
 f_8_18 cap_18 1
 f_8_18 pq_18_1 1.3
 f_9_14 cost 18
 f_9_14 src_9 1
 f_9_14 bal_14 1
 f_9_14 cap_14 1
 f_9_14 pq_14_1 1.2
 f_9_15 cost 18
 f_9_15 src_9 1
 f_9_15 bal_15 1
 f_9_15 cap_15 1
 f_9_15 pq_15_1 1.2
 f_9_16 cost 18
 f_9_16 src_9 1
 f_9_16 bal_16 1
 f_9_16 cap_16 1
 f_9_16 pq_16_1 1.2
 f_10_13 cost 19
 f_10_13 src_10 1
 f_10_13 bal_13 1
 f_10_13 cap_13 1
 f_10_13 pq_13_1 1.1
 f_10_14 cost 19
 f_10_14 src_10 1
 f_10_14 bal_14 1
 f_10_14 cap_14 1
 f_10_14 pq_14_1 1.1
 f_11_12 cost 20
 f_11_12 src_11 1
 f_11_12 bal_12 1
 f_11_12 cap_12 1
 f_11_12 pq_12_1 1
 f_12_20 cost -20
 f_12_20 dem_20 1
 f_12_20 bal_12 -1
 f_12_20 tq_20_1 -1.05
 f_12_21 cost -19.5
 f_12_21 dem_21 1
 f_12_21 bal_12 -1
 f_12_21 tq_21_1 -1.1
 f_12_22 cost -19
 f_12_22 dem_22 1
 f_12_22 bal_12 -1
 f_12_22 tq_22_1 -1.15
 f_12_23 cost -18.5
 f_12_23 dem_23 1
 f_12_23 bal_12 -1
 f_12_23 tq_23_1 -1.2
 f_12_24 cost -18
 f_12_24 dem_24 1
 f_12_24 bal_12 -1
 f_12_24 tq_24_1 -1.25
 f_12_25 cost -17.5
 f_12_25 dem_25 1
 f_12_25 bal_12 -1
 f_12_25 tq_25_1 -1.3
 f_12_26 cost -17
 f_12_26 dem_26 1
 f_12_26 bal_12 -1
 f_12_26 tq_26_1 -1.35
 f_12_27 cost -16.5
 f_12_27 dem_27 1
 f_12_27 bal_12 -1
 f_12_27 tq_27_1 -1.4
 f_12_28 cost -16
 f_12_28 dem_28 1
 f_12_28 bal_12 -1
 f_12_28 tq_28_1 -1.45
 f_12_29 cost -15.5
 f_12_29 dem_29 1
 f_12_29 bal_12 -1
 f_12_29 tq_29_1 -1.5
 f_12_30 cost -15
 f_12_30 dem_30 1
 f_12_30 bal_12 -1
 f_12_30 tq_30_1 -1.55
 f_12_31 cost -14.5
 f_12_31 dem_31 1
 f_12_31 bal_12 -1
 f_12_31 tq_31_1 -1.6
 f_12_32 cost -14
 f_12_32 dem_32 1
 f_12_32 bal_12 -1
 f_12_32 tq_32_1 -1.65
 f_12_33 cost -13.5
 f_12_33 dem_33 1
 f_12_33 bal_12 -1
 f_12_33 tq_33_1 -1.7
 f_12_34 cost -13
 f_12_34 dem_34 1
 f_12_34 bal_12 -1
 f_12_34 tq_34_1 -1.75
 f_12_35 cost -12.5
 f_12_35 dem_35 1
 f_12_35 bal_12 -1
 f_12_35 tq_35_1 -1.8
 f_13_20 cost -20
 f_13_20 dem_20 1
 f_13_20 bal_13 -1
 f_13_20 tq_20_1 -1.05
 f_13_21 cost -19.5
 f_13_21 dem_21 1
 f_13_21 bal_13 -1
 f_13_21 tq_21_1 -1.1
 f_13_22 cost -19
 f_13_22 dem_22 1
 f_13_22 bal_13 -1
 f_13_22 tq_22_1 -1.15
 f_13_23 cost -18.5
 f_13_23 dem_23 1
 f_13_23 bal_13 -1
 f_13_23 tq_23_1 -1.2
 f_13_24 cost -18
 f_13_24 dem_24 1
 f_13_24 bal_13 -1
 f_13_24 tq_24_1 -1.25
 f_13_25 cost -17.5
 f_13_25 dem_25 1
 f_13_25 bal_13 -1
 f_13_25 tq_25_1 -1.3
 f_13_26 cost -17
 f_13_26 dem_26 1
 f_13_26 bal_13 -1
 f_13_26 tq_26_1 -1.35
 f_13_27 cost -16.5
 f_13_27 dem_27 1
 f_13_27 bal_13 -1
 f_13_27 tq_27_1 -1.4
 f_13_28 cost -16
 f_13_28 dem_28 1
 f_13_28 bal_13 -1
 f_13_28 tq_28_1 -1.45
 f_13_29 cost -15.5
 f_13_29 dem_29 1
 f_13_29 bal_13 -1
 f_13_29 tq_29_1 -1.5
 f_13_30 cost -15
 f_13_30 dem_30 1
 f_13_30 bal_13 -1
 f_13_30 tq_30_1 -1.55
 f_13_31 cost -14.5
 f_13_31 dem_31 1
 f_13_31 bal_13 -1
 f_13_31 tq_31_1 -1.6
 f_13_32 cost -14
 f_13_32 dem_32 1
 f_13_32 bal_13 -1
 f_13_32 tq_32_1 -1.65
 f_13_33 cost -13.5
 f_13_33 dem_33 1
 f_13_33 bal_13 -1
 f_13_33 tq_33_1 -1.7
 f_13_34 cost -13
 f_13_34 dem_34 1
 f_13_34 bal_13 -1
 f_13_34 tq_34_1 -1.75
 f_13_35 cost -12.5
 f_13_35 dem_35 1
 f_13_35 bal_13 -1
 f_13_35 tq_35_1 -1.8
 f_14_20 cost -20
 f_14_20 dem_20 1
 f_14_20 bal_14 -1
 f_14_20 tq_20_1 -1.05
 f_14_21 cost -19.5
 f_14_21 dem_21 1
 f_14_21 bal_14 -1
 f_14_21 tq_21_1 -1.1
 f_14_22 cost -19
 f_14_22 dem_22 1
 f_14_22 bal_14 -1
 f_14_22 tq_22_1 -1.15
 f_14_23 cost -18.5
 f_14_23 dem_23 1
 f_14_23 bal_14 -1
 f_14_23 tq_23_1 -1.2
 f_14_24 cost -18
 f_14_24 dem_24 1
 f_14_24 bal_14 -1
 f_14_24 tq_24_1 -1.25
 f_14_25 cost -17.5
 f_14_25 dem_25 1
 f_14_25 bal_14 -1
 f_14_25 tq_25_1 -1.3
 f_14_26 cost -17
 f_14_26 dem_26 1
 f_14_26 bal_14 -1
 f_14_26 tq_26_1 -1.35
 f_14_27 cost -16.5
 f_14_27 dem_27 1
 f_14_27 bal_14 -1
 f_14_27 tq_27_1 -1.4
 f_14_28 cost -16
 f_14_28 dem_28 1
 f_14_28 bal_14 -1
 f_14_28 tq_28_1 -1.45
 f_14_29 cost -15.5
 f_14_29 dem_29 1
 f_14_29 bal_14 -1
 f_14_29 tq_29_1 -1.5
 f_14_30 cost -15
 f_14_30 dem_30 1
 f_14_30 bal_14 -1
 f_14_30 tq_30_1 -1.55
 f_14_31 cost -14.5
 f_14_31 dem_31 1
 f_14_31 bal_14 -1
 f_14_31 tq_31_1 -1.6
 f_14_32 cost -14
 f_14_32 dem_32 1
 f_14_32 bal_14 -1
 f_14_32 tq_32_1 -1.65
 f_14_33 cost -13.5
 f_14_33 dem_33 1
 f_14_33 bal_14 -1
 f_14_33 tq_33_1 -1.7
 f_14_34 cost -13
 f_14_34 dem_34 1
 f_14_34 bal_14 -1
 f_14_34 tq_34_1 -1.75
 f_14_35 cost -12.5
 f_14_35 dem_35 1
 f_14_35 bal_14 -1
 f_14_35 tq_35_1 -1.8
 f_15_20 cost -20
 f_15_20 dem_20 1
 f_15_20 bal_15 -1
 f_15_20 tq_20_1 -1.05
 f_15_21 cost -19.5
 f_15_21 dem_21 1
 f_15_21 bal_15 -1
 f_15_21 tq_21_1 -1.1
 f_15_22 cost -19
 f_15_22 dem_22 1
 f_15_22 bal_15 -1
 f_15_22 tq_22_1 -1.15
 f_15_23 cost -18.5
 f_15_23 dem_23 1
 f_15_23 bal_15 -1
 f_15_23 tq_23_1 -1.2
 f_15_24 cost -18
 f_15_24 dem_24 1
 f_15_24 bal_15 -1
 f_15_24 tq_24_1 -1.25
 f_15_25 cost -17.5
 f_15_25 dem_25 1
 f_15_25 bal_15 -1
 f_15_25 tq_25_1 -1.3
 f_15_26 cost -17
 f_15_26 dem_26 1
 f_15_26 bal_15 -1
 f_15_26 tq_26_1 -1.35
 f_15_27 cost -16.5
 f_15_27 dem_27 1
 f_15_27 bal_15 -1
 f_15_27 tq_27_1 -1.4
 f_15_28 cost -16
 f_15_28 dem_28 1
 f_15_28 bal_15 -1
 f_15_28 tq_28_1 -1.45
 f_15_29 cost -15.5
 f_15_29 dem_29 1
 f_15_29 bal_15 -1
 f_15_29 tq_29_1 -1.5
 f_15_30 cost -15
 f_15_30 dem_30 1
 f_15_30 bal_15 -1
 f_15_30 tq_30_1 -1.55
 f_15_31 cost -14.5
 f_15_31 dem_31 1
 f_15_31 bal_15 -1
 f_15_31 tq_31_1 -1.6
 f_15_32 cost -14
 f_15_32 dem_32 1
 f_15_32 bal_15 -1
 f_15_32 tq_32_1 -1.65
 f_15_33 cost -13.5
 f_15_33 dem_33 1
 f_15_33 bal_15 -1
 f_15_33 tq_33_1 -1.7
 f_15_34 cost -13
 f_15_34 dem_34 1
 f_15_34 bal_15 -1
 f_15_34 tq_34_1 -1.75
 f_15_35 cost -12.5
 f_15_35 dem_35 1
 f_15_35 bal_15 -1
 f_15_35 tq_35_1 -1.8
 f_16_20 cost -20
 f_16_20 dem_20 1
 f_16_20 bal_16 -1
 f_16_20 tq_20_1 -1.05
 f_16_21 cost -19.5
 f_16_21 dem_21 1
 f_16_21 bal_16 -1
 f_16_21 tq_21_1 -1.1
 f_16_22 cost -19
 f_16_22 dem_22 1
 f_16_22 bal_16 -1
 f_16_22 tq_22_1 -1.15
 f_16_23 cost -18.5
 f_16_23 dem_23 1
 f_16_23 bal_16 -1
 f_16_23 tq_23_1 -1.2
 f_16_24 cost -18
 f_16_24 dem_24 1
 f_16_24 bal_16 -1
 f_16_24 tq_24_1 -1.25
 f_16_25 cost -17.5
 f_16_25 dem_25 1
 f_16_25 bal_16 -1
 f_16_25 tq_25_1 -1.3
 f_16_26 cost -17
 f_16_26 dem_26 1
 f_16_26 bal_16 -1
 f_16_26 tq_26_1 -1.35
 f_16_27 cost -16.5
 f_16_27 dem_27 1
 f_16_27 bal_16 -1
 f_16_27 tq_27_1 -1.4
 f_16_28 cost -16
 f_16_28 dem_28 1
 f_16_28 bal_16 -1
 f_16_28 tq_28_1 -1.45
 f_16_29 cost -15.5
 f_16_29 dem_29 1
 f_16_29 bal_16 -1
 f_16_29 tq_29_1 -1.5
 f_16_30 cost -15
 f_16_30 dem_30 1
 f_16_30 bal_16 -1
 f_16_30 tq_30_1 -1.55
 f_16_31 cost -14.5
 f_16_31 dem_31 1
 f_16_31 bal_16 -1
 f_16_31 tq_31_1 -1.6
 f_16_32 cost -14
 f_16_32 dem_32 1
 f_16_32 bal_16 -1
 f_16_32 tq_32_1 -1.65
 f_16_33 cost -13.5
 f_16_33 dem_33 1
 f_16_33 bal_16 -1
 f_16_33 tq_33_1 -1.7
 f_16_34 cost -13
 f_16_34 dem_34 1
 f_16_34 bal_16 -1
 f_16_34 tq_34_1 -1.75
 f_16_35 cost -12.5
 f_16_35 dem_35 1
 f_16_35 bal_16 -1
 f_16_35 tq_35_1 -1.8
 f_17_20 cost -20
 f_17_20 dem_20 1
 f_17_20 bal_17 -1
 f_17_20 tq_20_1 -1.05
 f_17_21 cost -19.5
 f_17_21 dem_21 1
 f_17_21 bal_17 -1
 f_17_21 tq_21_1 -1.1
 f_17_22 cost -19
 f_17_22 dem_22 1
 f_17_22 bal_17 -1
 f_17_22 tq_22_1 -1.15
 f_17_23 cost -18.5
 f_17_23 dem_23 1
 f_17_23 bal_17 -1
 f_17_23 tq_23_1 -1.2
 f_17_24 cost -18
 f_17_24 dem_24 1
 f_17_24 bal_17 -1
 f_17_24 tq_24_1 -1.25
 f_17_25 cost -17.5
 f_17_25 dem_25 1
 f_17_25 bal_17 -1
 f_17_25 tq_25_1 -1.3
 f_17_26 cost -17
 f_17_26 dem_26 1
 f_17_26 bal_17 -1
 f_17_26 tq_26_1 -1.35
 f_17_27 cost -16.5
 f_17_27 dem_27 1
 f_17_27 bal_17 -1
 f_17_27 tq_27_1 -1.4
 f_17_28 cost -16
 f_17_28 dem_28 1
 f_17_28 bal_17 -1
 f_17_28 tq_28_1 -1.45
 f_17_29 cost -15.5
 f_17_29 dem_29 1
 f_17_29 bal_17 -1
 f_17_29 tq_29_1 -1.5
 f_17_30 cost -15
 f_17_30 dem_30 1
 f_17_30 bal_17 -1
 f_17_30 tq_30_1 -1.55
 f_17_31 cost -14.5
 f_17_31 dem_31 1
 f_17_31 bal_17 -1
 f_17_31 tq_31_1 -1.6
 f_17_32 cost -14
 f_17_32 dem_32 1
 f_17_32 bal_17 -1
 f_17_32 tq_32_1 -1.65
 f_17_33 cost -13.5
 f_17_33 dem_33 1
 f_17_33 bal_17 -1
 f_17_33 tq_33_1 -1.7
 f_17_34 cost -13
 f_17_34 dem_34 1
 f_17_34 bal_17 -1
 f_17_34 tq_34_1 -1.75
 f_17_35 cost -12.5
 f_17_35 dem_35 1
 f_17_35 bal_17 -1
 f_17_35 tq_35_1 -1.8
 f_18_20 cost -20
 f_18_20 dem_20 1
 f_18_20 bal_18 -1
 f_18_20 tq_20_1 -1.05
 f_18_21 cost -19.5
 f_18_21 dem_21 1
 f_18_21 bal_18 -1
 f_18_21 tq_21_1 -1.1
 f_18_22 cost -19
 f_18_22 dem_22 1
 f_18_22 bal_18 -1
 f_18_22 tq_22_1 -1.15
 f_18_23 cost -18.5
 f_18_23 dem_23 1
 f_18_23 bal_18 -1
 f_18_23 tq_23_1 -1.2
 f_18_24 cost -18
 f_18_24 dem_24 1
 f_18_24 bal_18 -1
 f_18_24 tq_24_1 -1.25
 f_18_25 cost -17.5
 f_18_25 dem_25 1
 f_18_25 bal_18 -1
 f_18_25 tq_25_1 -1.3
 f_18_26 cost -17
 f_18_26 dem_26 1
 f_18_26 bal_18 -1
 f_18_26 tq_26_1 -1.35
 f_18_27 cost -16.5
 f_18_27 dem_27 1
 f_18_27 bal_18 -1
 f_18_27 tq_27_1 -1.4
 f_18_28 cost -16
 f_18_28 dem_28 1
 f_18_28 bal_18 -1
 f_18_28 tq_28_1 -1.45
 f_18_29 cost -15.5
 f_18_29 dem_29 1
 f_18_29 bal_18 -1
 f_18_29 tq_29_1 -1.5
 f_18_30 cost -15
 f_18_30 dem_30 1
 f_18_30 bal_18 -1
 f_18_30 tq_30_1 -1.55
 f_18_31 cost -14.5
 f_18_31 dem_31 1
 f_18_31 bal_18 -1
 f_18_31 tq_31_1 -1.6
 f_18_32 cost -14
 f_18_32 dem_32 1
 f_18_32 bal_18 -1
 f_18_32 tq_32_1 -1.65
 f_18_33 cost -13.5
 f_18_33 dem_33 1
 f_18_33 bal_18 -1
 f_18_33 tq_33_1 -1.7
 f_18_34 cost -13
 f_18_34 dem_34 1
 f_18_34 bal_18 -1
 f_18_34 tq_34_1 -1.75
 f_18_35 cost -12.5
 f_18_35 dem_35 1
 f_18_35 bal_18 -1
 f_18_35 tq_35_1 -1.8
 f_19_20 cost -20
 f_19_20 dem_20 1
 f_19_20 bal_19 -1
 f_19_20 tq_20_1 -1.05
 f_19_21 cost -19.5
 f_19_21 dem_21 1
 f_19_21 bal_19 -1
 f_19_21 tq_21_1 -1.1
 f_19_22 cost -19
 f_19_22 dem_22 1
 f_19_22 bal_19 -1
 f_19_22 tq_22_1 -1.15
 f_19_23 cost -18.5
 f_19_23 dem_23 1
 f_19_23 bal_19 -1
 f_19_23 tq_23_1 -1.2
 f_19_24 cost -18
 f_19_24 dem_24 1
 f_19_24 bal_19 -1
 f_19_24 tq_24_1 -1.25
 f_19_25 cost -17.5
 f_19_25 dem_25 1
 f_19_25 bal_19 -1
 f_19_25 tq_25_1 -1.3
 f_19_26 cost -17
 f_19_26 dem_26 1
 f_19_26 bal_19 -1
 f_19_26 tq_26_1 -1.35
 f_19_27 cost -16.5
 f_19_27 dem_27 1
 f_19_27 bal_19 -1
 f_19_27 tq_27_1 -1.4
 f_19_28 cost -16
 f_19_28 dem_28 1
 f_19_28 bal_19 -1
 f_19_28 tq_28_1 -1.45
 f_19_29 cost -15.5
 f_19_29 dem_29 1
 f_19_29 bal_19 -1
 f_19_29 tq_29_1 -1.5
 f_19_30 cost -15
 f_19_30 dem_30 1
 f_19_30 bal_19 -1
 f_19_30 tq_30_1 -1.55
 f_19_31 cost -14.5
 f_19_31 dem_31 1
 f_19_31 bal_19 -1
 f_19_31 tq_31_1 -1.6
 f_19_32 cost -14
 f_19_32 dem_32 1
 f_19_32 bal_19 -1
 f_19_32 tq_32_1 -1.65
 f_19_33 cost -13.5
 f_19_33 dem_33 1
 f_19_33 bal_19 -1
 f_19_33 tq_33_1 -1.7
 f_19_34 cost -13
 f_19_34 dem_34 1
 f_19_34 bal_19 -1
 f_19_34 tq_34_1 -1.75
 f_19_35 cost -12.5
 f_19_35 dem_35 1
 f_19_35 bal_19 -1
 f_19_35 tq_35_1 -1.8
 p_12_1 cost 0
 p_13_1 cost 0
 p_14_1 cost 0
 p_15_1 cost 0
 p_16_1 cost 0
 p_17_1 cost 0
 p_18_1 cost 0
 p_19_1 cost 0
RHS
 rhs src_1 16
 rhs src_2 16
 rhs src_3 16
 rhs src_4 16
 rhs src_5 16
 rhs src_6 16
 rhs src_7 16
 rhs src_8 16
 rhs src_9 16
 rhs src_10 16
 rhs src_11 16
 rhs dem_20 1
 rhs dem_21 1
 rhs dem_22 1
 rhs dem_23 1
 rhs dem_24 1
 rhs dem_25 1
 rhs dem_26 1
 rhs dem_27 1
 rhs dem_28 1
 rhs dem_29 1
 rhs dem_30 1
 rhs dem_31 1
 rhs dem_32 1
 rhs dem_33 1
 rhs dem_34 1
 rhs dem_35 1
 rhs cap_12 16
 rhs cap_13 16
 rhs cap_14 16
 rhs cap_15 16
 rhs cap_16 16
 rhs cap_17 16
 rhs cap_18 16
 rhs cap_19 16
BOUNDS
 UP bnd f_1_13 16
 UP bnd f_2_12 16
 UP bnd f_2_19 16
 UP bnd f_3_17 16
 UP bnd f_3_18 16
 UP bnd f_3_19 16
 UP bnd f_4_13 16
 UP bnd f_4_16 16
 UP bnd f_4_18 16
 UP bnd f_4_19 16
 UP bnd f_5_12 16
 UP bnd f_5_15 16
 UP bnd f_5_17 16
 UP bnd f_5_18 16
 UP bnd f_6_14 16
 UP bnd f_6_15 16
 UP bnd f_6_16 16
 UP bnd f_6_17 16
 UP bnd f_7_13 16
 UP bnd f_7_14 16
 UP bnd f_7_16 16
 UP bnd f_7_19 16
 UP bnd f_8_12 16
 UP bnd f_8_15 16
 UP bnd f_8_17 16
 UP bnd f_8_18 16
 UP bnd f_9_14 16
 UP bnd f_9_15 16
 UP bnd f_9_16 16
 UP bnd f_10_13 16
 UP bnd f_10_14 16
 UP bnd f_11_12 16
 UP bnd f_12_20 1
 UP bnd f_12_21 1
 UP bnd f_12_22 1
 UP bnd f_12_23 1
 UP bnd f_12_24 1
 UP bnd f_12_25 1
 UP bnd f_12_26 1
 UP bnd f_12_27 1
 UP bnd f_12_28 1
 UP bnd f_12_29 1
 UP bnd f_12_30 1
 UP bnd f_12_31 1
 UP bnd f_12_32 1
 UP bnd f_12_33 1
 UP bnd f_12_34 1
 UP bnd f_12_35 1
 UP bnd f_13_20 1
 UP bnd f_13_21 1
 UP bnd f_13_22 1
 UP bnd f_13_23 1
 UP bnd f_13_24 1
 UP bnd f_13_25 1
 UP bnd f_13_26 1
 UP bnd f_13_27 1
 UP bnd f_13_28 1
 UP bnd f_13_29 1
 UP bnd f_13_30 1
 UP bnd f_13_31 1
 UP bnd f_13_32 1
 UP bnd f_13_33 1
 UP bnd f_13_34 1
 UP bnd f_13_35 1
 UP bnd f_14_20 1
 UP bnd f_14_21 1
 UP bnd f_14_22 1
 UP bnd f_14_23 1
 UP bnd f_14_24 1
 UP bnd f_14_25 1
 UP bnd f_14_26 1
 UP bnd f_14_27 1
 UP bnd f_14_28 1
 UP bnd f_14_29 1
 UP bnd f_14_30 1
 UP bnd f_14_31 1
 UP bnd f_14_32 1
 UP bnd f_14_33 1
 UP bnd f_14_34 1
 UP bnd f_14_35 1
 UP bnd f_15_20 1
 UP bnd f_15_21 1
 UP bnd f_15_22 1
 UP bnd f_15_23 1
 UP bnd f_15_24 1
 UP bnd f_15_25 1
 UP bnd f_15_26 1
 UP bnd f_15_27 1
 UP bnd f_15_28 1
 UP bnd f_15_29 1
 UP bnd f_15_30 1
 UP bnd f_15_31 1
 UP bnd f_15_32 1
 UP bnd f_15_33 1
 UP bnd f_15_34 1
 UP bnd f_15_35 1
 UP bnd f_16_20 1
 UP bnd f_16_21 1
 UP bnd f_16_22 1
 UP bnd f_16_23 1
 UP bnd f_16_24 1
 UP bnd f_16_25 1
 UP bnd f_16_26 1
 UP bnd f_16_27 1
 UP bnd f_16_28 1
 UP bnd f_16_29 1
 UP bnd f_16_30 1
 UP bnd f_16_31 1
 UP bnd f_16_32 1
 UP bnd f_16_33 1
 UP bnd f_16_34 1
 UP bnd f_16_35 1
 UP bnd f_17_20 1
 UP bnd f_17_21 1
 UP bnd f_17_22 1
 UP bnd f_17_23 1
 UP bnd f_17_24 1
 UP bnd f_17_25 1
 UP bnd f_17_26 1
 UP bnd f_17_27 1
 UP bnd f_17_28 1
 UP bnd f_17_29 1
 UP bnd f_17_30 1
 UP bnd f_17_31 1
 UP bnd f_17_32 1
 UP bnd f_17_33 1
 UP bnd f_17_34 1
 UP bnd f_17_35 1
 UP bnd f_18_20 1
 UP bnd f_18_21 1
 UP bnd f_18_22 1
 UP bnd f_18_23 1
 UP bnd f_18_24 1
 UP bnd f_18_25 1
 UP bnd f_18_26 1
 UP bnd f_18_27 1
 UP bnd f_18_28 1
 UP bnd f_18_29 1
 UP bnd f_18_30 1
 UP bnd f_18_31 1
 UP bnd f_18_32 1
 UP bnd f_18_33 1
 UP bnd f_18_34 1
 UP bnd f_18_35 1
 UP bnd f_19_20 1
 UP bnd f_19_21 1
 UP bnd f_19_22 1
 UP bnd f_19_23 1
 UP bnd f_19_24 1
 UP bnd f_19_25 1
 UP bnd f_19_26 1
 UP bnd f_19_27 1
 UP bnd f_19_28 1
 UP bnd f_19_29 1
 UP bnd f_19_30 1
 UP bnd f_19_31 1
 UP bnd f_19_32 1
 UP bnd f_19_33 1
 UP bnd f_19_34 1
 UP bnd f_19_35 1
 LO bnd p_12_1 1
 UP bnd p_12_1 1.9
 LO bnd p_13_1 1.1
 UP bnd p_13_1 2
 LO bnd p_14_1 1.1
 UP bnd p_14_1 1.5
 LO bnd p_15_1 1.2
 UP bnd p_15_1 1.6
 LO bnd p_16_1 1.2
 UP bnd p_16_1 1.7
 LO bnd p_17_1 1.3
 UP bnd p_17_1 1.8
 LO bnd p_18_1 1.3
 UP bnd p_18_1 1.8
 LO bnd p_19_1 1.4
 UP bnd p_19_1 1.9
QCMATRIX pq_12_1
 f_12_20 p_12_1 -0.5
 p_12_1 f_12_20 -0.5
 f_12_21 p_12_1 -0.5
 p_12_1 f_12_21 -0.5
 f_12_22 p_12_1 -0.5
 p_12_1 f_12_22 -0.5
 f_12_23 p_12_1 -0.5
 p_12_1 f_12_23 -0.5
 f_12_24 p_12_1 -0.5
 p_12_1 f_12_24 -0.5
 f_12_25 p_12_1 -0.5
 p_12_1 f_12_25 -0.5
 f_12_26 p_12_1 -0.5
 p_12_1 f_12_26 -0.5
 f_12_27 p_12_1 -0.5
 p_12_1 f_12_27 -0.5
 f_12_28 p_12_1 -0.5
 p_12_1 f_12_28 -0.5
 f_12_29 p_12_1 -0.5
 p_12_1 f_12_29 -0.5
 f_12_30 p_12_1 -0.5
 p_12_1 f_12_30 -0.5
 f_12_31 p_12_1 -0.5
 p_12_1 f_12_31 -0.5
 f_12_32 p_12_1 -0.5
 p_12_1 f_12_32 -0.5
 f_12_33 p_12_1 -0.5
 p_12_1 f_12_33 -0.5
 f_12_34 p_12_1 -0.5
 p_12_1 f_12_34 -0.5
 f_12_35 p_12_1 -0.5
 p_12_1 f_12_35 -0.5
QCMATRIX pq_13_1
 f_13_20 p_13_1 -0.5
 p_13_1 f_13_20 -0.5
 f_13_21 p_13_1 -0.5
 p_13_1 f_13_21 -0.5
 f_13_22 p_13_1 -0.5
 p_13_1 f_13_22 -0.5
 f_13_23 p_13_1 -0.5
 p_13_1 f_13_23 -0.5
 f_13_24 p_13_1 -0.5
 p_13_1 f_13_24 -0.5
 f_13_25 p_13_1 -0.5
 p_13_1 f_13_25 -0.5
 f_13_26 p_13_1 -0.5
 p_13_1 f_13_26 -0.5
 f_13_27 p_13_1 -0.5
 p_13_1 f_13_27 -0.5
 f_13_28 p_13_1 -0.5
 p_13_1 f_13_28 -0.5
 f_13_29 p_13_1 -0.5
 p_13_1 f_13_29 -0.5
 f_13_30 p_13_1 -0.5
 p_13_1 f_13_30 -0.5
 f_13_31 p_13_1 -0.5
 p_13_1 f_13_31 -0.5
 f_13_32 p_13_1 -0.5
 p_13_1 f_13_32 -0.5
 f_13_33 p_13_1 -0.5
 p_13_1 f_13_33 -0.5
 f_13_34 p_13_1 -0.5
 p_13_1 f_13_34 -0.5
 f_13_35 p_13_1 -0.5
 p_13_1 f_13_35 -0.5
QCMATRIX pq_14_1
 f_14_20 p_14_1 -0.5
 p_14_1 f_14_20 -0.5
 f_14_21 p_14_1 -0.5
 p_14_1 f_14_21 -0.5
 f_14_22 p_14_1 -0.5
 p_14_1 f_14_22 -0.5
 f_14_23 p_14_1 -0.5
 p_14_1 f_14_23 -0.5
 f_14_24 p_14_1 -0.5
 p_14_1 f_14_24 -0.5
 f_14_25 p_14_1 -0.5
 p_14_1 f_14_25 -0.5
 f_14_26 p_14_1 -0.5
 p_14_1 f_14_26 -0.5
 f_14_27 p_14_1 -0.5
 p_14_1 f_14_27 -0.5
 f_14_28 p_14_1 -0.5
 p_14_1 f_14_28 -0.5
 f_14_29 p_14_1 -0.5
 p_14_1 f_14_29 -0.5
 f_14_30 p_14_1 -0.5
 p_14_1 f_14_30 -0.5
 f_14_31 p_14_1 -0.5
 p_14_1 f_14_31 -0.5
 f_14_32 p_14_1 -0.5
 p_14_1 f_14_32 -0.5
 f_14_33 p_14_1 -0.5
 p_14_1 f_14_33 -0.5
 f_14_34 p_14_1 -0.5
 p_14_1 f_14_34 -0.5
 f_14_35 p_14_1 -0.5
 p_14_1 f_14_35 -0.5
QCMATRIX pq_15_1
 f_15_20 p_15_1 -0.5
 p_15_1 f_15_20 -0.5
 f_15_21 p_15_1 -0.5
 p_15_1 f_15_21 -0.5
 f_15_22 p_15_1 -0.5
 p_15_1 f_15_22 -0.5
 f_15_23 p_15_1 -0.5
 p_15_1 f_15_23 -0.5
 f_15_24 p_15_1 -0.5
 p_15_1 f_15_24 -0.5
 f_15_25 p_15_1 -0.5
 p_15_1 f_15_25 -0.5
 f_15_26 p_15_1 -0.5
 p_15_1 f_15_26 -0.5
 f_15_27 p_15_1 -0.5
 p_15_1 f_15_27 -0.5
 f_15_28 p_15_1 -0.5
 p_15_1 f_15_28 -0.5
 f_15_29 p_15_1 -0.5
 p_15_1 f_15_29 -0.5
 f_15_30 p_15_1 -0.5
 p_15_1 f_15_30 -0.5
 f_15_31 p_15_1 -0.5
 p_15_1 f_15_31 -0.5
 f_15_32 p_15_1 -0.5
 p_15_1 f_15_32 -0.5
 f_15_33 p_15_1 -0.5
 p_15_1 f_15_33 -0.5
 f_15_34 p_15_1 -0.5
 p_15_1 f_15_34 -0.5
 f_15_35 p_15_1 -0.5
 p_15_1 f_15_35 -0.5
QCMATRIX pq_16_1
 f_16_20 p_16_1 -0.5
 p_16_1 f_16_20 -0.5
 f_16_21 p_16_1 -0.5
 p_16_1 f_16_21 -0.5
 f_16_22 p_16_1 -0.5
 p_16_1 f_16_22 -0.5
 f_16_23 p_16_1 -0.5
 p_16_1 f_16_23 -0.5
 f_16_24 p_16_1 -0.5
 p_16_1 f_16_24 -0.5
 f_16_25 p_16_1 -0.5
 p_16_1 f_16_25 -0.5
 f_16_26 p_16_1 -0.5
 p_16_1 f_16_26 -0.5
 f_16_27 p_16_1 -0.5
 p_16_1 f_16_27 -0.5
 f_16_28 p_16_1 -0.5
 p_16_1 f_16_28 -0.5
 f_16_29 p_16_1 -0.5
 p_16_1 f_16_29 -0.5
 f_16_30 p_16_1 -0.5
 p_16_1 f_16_30 -0.5
 f_16_31 p_16_1 -0.5
 p_16_1 f_16_31 -0.5
 f_16_32 p_16_1 -0.5
 p_16_1 f_16_32 -0.5
 f_16_33 p_16_1 -0.5
 p_16_1 f_16_33 -0.5
 f_16_34 p_16_1 -0.5
 p_16_1 f_16_34 -0.5
 f_16_35 p_16_1 -0.5
 p_16_1 f_16_35 -0.5
QCMATRIX pq_17_1
 f_17_20 p_17_1 -0.5
 p_17_1 f_17_20 -0.5
 f_17_21 p_17_1 -0.5
 p_17_1 f_17_21 -0.5
 f_17_22 p_17_1 -0.5
 p_17_1 f_17_22 -0.5
 f_17_23 p_17_1 -0.5
 p_17_1 f_17_23 -0.5
 f_17_24 p_17_1 -0.5
 p_17_1 f_17_24 -0.5
 f_17_25 p_17_1 -0.5
 p_17_1 f_17_25 -0.5
 f_17_26 p_17_1 -0.5
 p_17_1 f_17_26 -0.5
 f_17_27 p_17_1 -0.5
 p_17_1 f_17_27 -0.5
 f_17_28 p_17_1 -0.5
 p_17_1 f_17_28 -0.5
 f_17_29 p_17_1 -0.5
 p_17_1 f_17_29 -0.5
 f_17_30 p_17_1 -0.5
 p_17_1 f_17_30 -0.5
 f_17_31 p_17_1 -0.5
 p_17_1 f_17_31 -0.5
 f_17_32 p_17_1 -0.5
 p_17_1 f_17_32 -0.5
 f_17_33 p_17_1 -0.5
 p_17_1 f_17_33 -0.5
 f_17_34 p_17_1 -0.5
 p_17_1 f_17_34 -0.5
 f_17_35 p_17_1 -0.5
 p_17_1 f_17_35 -0.5
QCMATRIX pq_18_1
 f_18_20 p_18_1 -0.5
 p_18_1 f_18_20 -0.5
 f_18_21 p_18_1 -0.5
 p_18_1 f_18_21 -0.5
 f_18_22 p_18_1 -0.5
 p_18_1 f_18_22 -0.5
 f_18_23 p_18_1 -0.5
 p_18_1 f_18_23 -0.5
 f_18_24 p_18_1 -0.5
 p_18_1 f_18_24 -0.5
 f_18_25 p_18_1 -0.5
 p_18_1 f_18_25 -0.5
 f_18_26 p_18_1 -0.5
 p_18_1 f_18_26 -0.5
 f_18_27 p_18_1 -0.5
 p_18_1 f_18_27 -0.5
 f_18_28 p_18_1 -0.5
 p_18_1 f_18_28 -0.5
 f_18_29 p_18_1 -0.5
 p_18_1 f_18_29 -0.5
 f_18_30 p_18_1 -0.5
 p_18_1 f_18_30 -0.5
 f_18_31 p_18_1 -0.5
 p_18_1 f_18_31 -0.5
 f_18_32 p_18_1 -0.5
 p_18_1 f_18_32 -0.5
 f_18_33 p_18_1 -0.5
 p_18_1 f_18_33 -0.5
 f_18_34 p_18_1 -0.5
 p_18_1 f_18_34 -0.5
 f_18_35 p_18_1 -0.5
 p_18_1 f_18_35 -0.5
QCMATRIX pq_19_1
 f_19_20 p_19_1 -0.5
 p_19_1 f_19_20 -0.5
 f_19_21 p_19_1 -0.5
 p_19_1 f_19_21 -0.5
 f_19_22 p_19_1 -0.5
 p_19_1 f_19_22 -0.5
 f_19_23 p_19_1 -0.5
 p_19_1 f_19_23 -0.5
 f_19_24 p_19_1 -0.5
 p_19_1 f_19_24 -0.5
 f_19_25 p_19_1 -0.5
 p_19_1 f_19_25 -0.5
 f_19_26 p_19_1 -0.5
 p_19_1 f_19_26 -0.5
 f_19_27 p_19_1 -0.5
 p_19_1 f_19_27 -0.5
 f_19_28 p_19_1 -0.5
 p_19_1 f_19_28 -0.5
 f_19_29 p_19_1 -0.5
 p_19_1 f_19_29 -0.5
 f_19_30 p_19_1 -0.5
 p_19_1 f_19_30 -0.5
 f_19_31 p_19_1 -0.5
 p_19_1 f_19_31 -0.5
 f_19_32 p_19_1 -0.5
 p_19_1 f_19_32 -0.5
 f_19_33 p_19_1 -0.5
 p_19_1 f_19_33 -0.5
 f_19_34 p_19_1 -0.5
 p_19_1 f_19_34 -0.5
 f_19_35 p_19_1 -0.5
 p_19_1 f_19_35 -0.5
QCMATRIX tq_20_1
 f_12_20 p_12_1 0.5
 p_12_1 f_12_20 0.5
 f_13_20 p_13_1 0.5
 p_13_1 f_13_20 0.5
 f_14_20 p_14_1 0.5
 p_14_1 f_14_20 0.5
 f_15_20 p_15_1 0.5
 p_15_1 f_15_20 0.5
 f_16_20 p_16_1 0.5
 p_16_1 f_16_20 0.5
 f_17_20 p_17_1 0.5
 p_17_1 f_17_20 0.5
 f_18_20 p_18_1 0.5
 p_18_1 f_18_20 0.5
 f_19_20 p_19_1 0.5
 p_19_1 f_19_20 0.5
QCMATRIX tq_21_1
 f_12_21 p_12_1 0.5
 p_12_1 f_12_21 0.5
 f_13_21 p_13_1 0.5
 p_13_1 f_13_21 0.5
 f_14_21 p_14_1 0.5
 p_14_1 f_14_21 0.5
 f_15_21 p_15_1 0.5
 p_15_1 f_15_21 0.5
 f_16_21 p_16_1 0.5
 p_16_1 f_16_21 0.5
 f_17_21 p_17_1 0.5
 p_17_1 f_17_21 0.5
 f_18_21 p_18_1 0.5
 p_18_1 f_18_21 0.5
 f_19_21 p_19_1 0.5
 p_19_1 f_19_21 0.5
QCMATRIX tq_22_1
 f_12_22 p_12_1 0.5
 p_12_1 f_12_22 0.5
 f_13_22 p_13_1 0.5
 p_13_1 f_13_22 0.5
 f_14_22 p_14_1 0.5
 p_14_1 f_14_22 0.5
 f_15_22 p_15_1 0.5
 p_15_1 f_15_22 0.5
 f_16_22 p_16_1 0.5
 p_16_1 f_16_22 0.5
 f_17_22 p_17_1 0.5
 p_17_1 f_17_22 0.5
 f_18_22 p_18_1 0.5
 p_18_1 f_18_22 0.5
 f_19_22 p_19_1 0.5
 p_19_1 f_19_22 0.5
QCMATRIX tq_23_1
 f_12_23 p_12_1 0.5
 p_12_1 f_12_23 0.5
 f_13_23 p_13_1 0.5
 p_13_1 f_13_23 0.5
 f_14_23 p_14_1 0.5
 p_14_1 f_14_23 0.5
 f_15_23 p_15_1 0.5
 p_15_1 f_15_23 0.5
 f_16_23 p_16_1 0.5
 p_16_1 f_16_23 0.5
 f_17_23 p_17_1 0.5
 p_17_1 f_17_23 0.5
 f_18_23 p_18_1 0.5
 p_18_1 f_18_23 0.5
 f_19_23 p_19_1 0.5
 p_19_1 f_19_23 0.5
QCMATRIX tq_24_1
 f_12_24 p_12_1 0.5
 p_12_1 f_12_24 0.5
 f_13_24 p_13_1 0.5
 p_13_1 f_13_24 0.5
 f_14_24 p_14_1 0.5
 p_14_1 f_14_24 0.5
 f_15_24 p_15_1 0.5
 p_15_1 f_15_24 0.5
 f_16_24 p_16_1 0.5
 p_16_1 f_16_24 0.5
 f_17_24 p_17_1 0.5
 p_17_1 f_17_24 0.5
 f_18_24 p_18_1 0.5
 p_18_1 f_18_24 0.5
 f_19_24 p_19_1 0.5
 p_19_1 f_19_24 0.5
QCMATRIX tq_25_1
 f_12_25 p_12_1 0.5
 p_12_1 f_12_25 0.5
 f_13_25 p_13_1 0.5
 p_13_1 f_13_25 0.5
 f_14_25 p_14_1 0.5
 p_14_1 f_14_25 0.5
 f_15_25 p_15_1 0.5
 p_15_1 f_15_25 0.5
 f_16_25 p_16_1 0.5
 p_16_1 f_16_25 0.5
 f_17_25 p_17_1 0.5
 p_17_1 f_17_25 0.5
 f_18_25 p_18_1 0.5
 p_18_1 f_18_25 0.5
 f_19_25 p_19_1 0.5
 p_19_1 f_19_25 0.5
QCMATRIX tq_26_1
 f_12_26 p_12_1 0.5
 p_12_1 f_12_26 0.5
 f_13_26 p_13_1 0.5
 p_13_1 f_13_26 0.5
 f_14_26 p_14_1 0.5
 p_14_1 f_14_26 0.5
 f_15_26 p_15_1 0.5
 p_15_1 f_15_26 0.5
 f_16_26 p_16_1 0.5
 p_16_1 f_16_26 0.5
 f_17_26 p_17_1 0.5
 p_17_1 f_17_26 0.5
 f_18_26 p_18_1 0.5
 p_18_1 f_18_26 0.5
 f_19_26 p_19_1 0.5
 p_19_1 f_19_26 0.5
QCMATRIX tq_27_1
 f_12_27 p_12_1 0.5
 p_12_1 f_12_27 0.5
 f_13_27 p_13_1 0.5
 p_13_1 f_13_27 0.5
 f_14_27 p_14_1 0.5
 p_14_1 f_14_27 0.5
 f_15_27 p_15_1 0.5
 p_15_1 f_15_27 0.5
 f_16_27 p_16_1 0.5
 p_16_1 f_16_27 0.5
 f_17_27 p_17_1 0.5
 p_17_1 f_17_27 0.5
 f_18_27 p_18_1 0.5
 p_18_1 f_18_27 0.5
 f_19_27 p_19_1 0.5
 p_19_1 f_19_27 0.5
QCMATRIX tq_28_1
 f_12_28 p_12_1 0.5
 p_12_1 f_12_28 0.5
 f_13_28 p_13_1 0.5
 p_13_1 f_13_28 0.5
 f_14_28 p_14_1 0.5
 p_14_1 f_14_28 0.5
 f_15_28 p_15_1 0.5
 p_15_1 f_15_28 0.5
 f_16_28 p_16_1 0.5
 p_16_1 f_16_28 0.5
 f_17_28 p_17_1 0.5
 p_17_1 f_17_28 0.5
 f_18_28 p_18_1 0.5
 p_18_1 f_18_28 0.5
 f_19_28 p_19_1 0.5
 p_19_1 f_19_28 0.5
QCMATRIX tq_29_1
 f_12_29 p_12_1 0.5
 p_12_1 f_12_29 0.5
 f_13_29 p_13_1 0.5
 p_13_1 f_13_29 0.5
 f_14_29 p_14_1 0.5
 p_14_1 f_14_29 0.5
 f_15_29 p_15_1 0.5
 p_15_1 f_15_29 0.5
 f_16_29 p_16_1 0.5
 p_16_1 f_16_29 0.5
 f_17_29 p_17_1 0.5
 p_17_1 f_17_29 0.5
 f_18_29 p_18_1 0.5
 p_18_1 f_18_29 0.5
 f_19_29 p_19_1 0.5
 p_19_1 f_19_29 0.5
QCMATRIX tq_30_1
 f_12_30 p_12_1 0.5
 p_12_1 f_12_30 0.5
 f_13_30 p_13_1 0.5
 p_13_1 f_13_30 0.5
 f_14_30 p_14_1 0.5
 p_14_1 f_14_30 0.5
 f_15_30 p_15_1 0.5
 p_15_1 f_15_30 0.5
 f_16_30 p_16_1 0.5
 p_16_1 f_16_30 0.5
 f_17_30 p_17_1 0.5
 p_17_1 f_17_30 0.5
 f_18_30 p_18_1 0.5
 p_18_1 f_18_30 0.5
 f_19_30 p_19_1 0.5
 p_19_1 f_19_30 0.5
QCMATRIX tq_31_1
 f_12_31 p_12_1 0.5
 p_12_1 f_12_31 0.5
 f_13_31 p_13_1 0.5
 p_13_1 f_13_31 0.5
 f_14_31 p_14_1 0.5
 p_14_1 f_14_31 0.5
 f_15_31 p_15_1 0.5
 p_15_1 f_15_31 0.5
 f_16_31 p_16_1 0.5
 p_16_1 f_16_31 0.5
 f_17_31 p_17_1 0.5
 p_17_1 f_17_31 0.5
 f_18_31 p_18_1 0.5
 p_18_1 f_18_31 0.5
 f_19_31 p_19_1 0.5
 p_19_1 f_19_31 0.5
QCMATRIX tq_32_1
 f_12_32 p_12_1 0.5
 p_12_1 f_12_32 0.5
 f_13_32 p_13_1 0.5
 p_13_1 f_13_32 0.5
 f_14_32 p_14_1 0.5
 p_14_1 f_14_32 0.5
 f_15_32 p_15_1 0.5
 p_15_1 f_15_32 0.5
 f_16_32 p_16_1 0.5
 p_16_1 f_16_32 0.5
 f_17_32 p_17_1 0.5
 p_17_1 f_17_32 0.5
 f_18_32 p_18_1 0.5
 p_18_1 f_18_32 0.5
 f_19_32 p_19_1 0.5
 p_19_1 f_19_32 0.5
QCMATRIX tq_33_1
 f_12_33 p_12_1 0.5
 p_12_1 f_12_33 0.5
 f_13_33 p_13_1 0.5
 p_13_1 f_13_33 0.5
 f_14_33 p_14_1 0.5
 p_14_1 f_14_33 0.5
 f_15_33 p_15_1 0.5
 p_15_1 f_15_33 0.5
 f_16_33 p_16_1 0.5
 p_16_1 f_16_33 0.5
 f_17_33 p_17_1 0.5
 p_17_1 f_17_33 0.5
 f_18_33 p_18_1 0.5
 p_18_1 f_18_33 0.5
 f_19_33 p_19_1 0.5
 p_19_1 f_19_33 0.5
QCMATRIX tq_34_1
 f_12_34 p_12_1 0.5
 p_12_1 f_12_34 0.5
 f_13_34 p_13_1 0.5
 p_13_1 f_13_34 0.5
 f_14_34 p_14_1 0.5
 p_14_1 f_14_34 0.5
 f_15_34 p_15_1 0.5
 p_15_1 f_15_34 0.5
 f_16_34 p_16_1 0.5
 p_16_1 f_16_34 0.5
 f_17_34 p_17_1 0.5
 p_17_1 f_17_34 0.5
 f_18_34 p_18_1 0.5
 p_18_1 f_18_34 0.5
 f_19_34 p_19_1 0.5
 p_19_1 f_19_34 0.5
QCMATRIX tq_35_1
 f_12_35 p_12_1 0.5
 p_12_1 f_12_35 0.5
 f_13_35 p_13_1 0.5
 p_13_1 f_13_35 0.5
 f_14_35 p_14_1 0.5
 p_14_1 f_14_35 0.5
 f_15_35 p_15_1 0.5
 p_15_1 f_15_35 0.5
 f_16_35 p_16_1 0.5
 p_16_1 f_16_35 0.5
 f_17_35 p_17_1 0.5
 p_17_1 f_17_35 0.5
 f_18_35 p_18_1 0.5
 p_18_1 f_18_35 0.5
 f_19_35 p_19_1 0.5
 p_19_1 f_19_35 0.5
ENDATA
