* SANKHYA pooling instance foulds5, P-formulation (#516).
* GENERATED by bench/runners/pooling_models.py from data/pooling/instances/foulds5.json; do not edit.
* Data: Alfaki and Haugland, standard pooling instance Foulds5.gms
* (sha256 b27a569d88890b6eb378f0475e8710dbf4ba38a1f68a33a37993a071e899aa95).
* Source paper and published optimum: data/pooling/reference.json.
* Minimize total arc cost. Quadratic rows use QCMATRIX (full symmetric, no 1/2).
*
* P-formulation (Haverly 1978; Tawarmalani and Sahinidis 2002, ch. 9)
NAME foulds5_p
ROWS
 N cost
 L src_1
 L src_2
 L src_3
 L src_4
 L src_5
 L src_6
 L src_7
 L src_8
 L src_9
 L src_10
 L src_11
 L dem_16
 L dem_17
 L dem_18
 L dem_19
 L dem_20
 L dem_21
 L dem_22
 L dem_23
 L dem_24
 L dem_25
 L dem_26
 L dem_27
 L dem_28
 L dem_29
 L dem_30
 L dem_31
 E bal_12
 L cap_12
 E pq_12_1
 E bal_13
 L cap_13
 E pq_13_1
 E bal_14
 L cap_14
 E pq_14_1
 E bal_15
 L cap_15
 E pq_15_1
 L tq_16_1
 L tq_17_1
 L tq_18_1
 L tq_19_1
 L tq_20_1
 L tq_21_1
 L tq_22_1
 L tq_23_1
 L tq_24_1
 L tq_25_1
 L tq_26_1
 L tq_27_1
 L tq_28_1
 L tq_29_1
 L tq_30_1
 L tq_31_1
COLUMNS
 f_1_12 cost 10
 f_1_12 src_1 1
 f_1_12 bal_12 1
 f_1_12 cap_12 1
 f_1_12 pq_12_1 2
 f_1_14 cost 10
 f_1_14 src_1 1
 f_1_14 bal_14 1
 f_1_14 cap_14 1
 f_1_14 pq_14_1 2
 f_2_12 cost 11
 f_2_12 src_2 1
 f_2_12 bal_12 1
 f_2_12 cap_12 1
 f_2_12 pq_12_1 1.9
 f_2_13 cost 11
 f_2_13 src_2 1
 f_2_13 bal_13 1
 f_2_13 cap_13 1
 f_2_13 pq_13_1 1.9
 f_2_14 cost 11
 f_2_14 src_2 1
 f_2_14 bal_14 1
 f_2_14 cap_14 1
 f_2_14 pq_14_1 1.9
 f_3_12 cost 12
 f_3_12 src_3 1
 f_3_12 bal_12 1
 f_3_12 cap_12 1
 f_3_12 pq_12_1 1.8
 f_3_13 cost 12
 f_3_13 src_3 1
 f_3_13 bal_13 1
 f_3_13 cap_13 1
 f_3_13 pq_13_1 1.8
 f_3_14 cost 12
 f_3_14 src_3 1
 f_3_14 bal_14 1
 f_3_14 cap_14 1
 f_3_14 pq_14_1 1.8
 f_4_12 cost 13
 f_4_12 src_4 1
 f_4_12 bal_12 1
 f_4_12 cap_12 1
 f_4_12 pq_12_1 1.7
 f_4_13 cost 13
 f_4_13 src_4 1
 f_4_13 bal_13 1
 f_4_13 cap_13 1
 f_4_13 pq_13_1 1.7
 f_4_14 cost 13
 f_4_14 src_4 1
 f_4_14 bal_14 1
 f_4_14 cap_14 1
 f_4_14 pq_14_1 1.7
 f_4_15 cost 13
 f_4_15 src_4 1
 f_4_15 bal_15 1
 f_4_15 cap_15 1
 f_4_15 pq_15_1 1.7
 f_5_13 cost 14
 f_5_13 src_5 1
 f_5_13 bal_13 1
 f_5_13 cap_13 1
 f_5_13 pq_13_1 1.6
 f_5_14 cost 14
 f_5_14 src_5 1
 f_5_14 bal_14 1
 f_5_14 cap_14 1
 f_5_14 pq_14_1 1.6
 f_5_15 cost 14
 f_5_15 src_5 1
 f_5_15 bal_15 1
 f_5_15 cap_15 1
 f_5_15 pq_15_1 1.6
 f_6_14 cost 15
 f_6_14 src_6 1
 f_6_14 bal_14 1
 f_6_14 cap_14 1
 f_6_14 pq_14_1 1.5
 f_6_15 cost 15
 f_6_15 src_6 1
 f_6_15 bal_15 1
 f_6_15 cap_15 1
 f_6_15 pq_15_1 1.5
 f_7_13 cost 16
 f_7_13 src_7 1
 f_7_13 bal_13 1
 f_7_13 cap_13 1
 f_7_13 pq_13_1 1.4
 f_7_14 cost 16
 f_7_14 src_7 1
 f_7_14 bal_14 1
 f_7_14 cap_14 1
 f_7_14 pq_14_1 1.4
 f_7_15 cost 16
 f_7_15 src_7 1
 f_7_15 bal_15 1
 f_7_15 cap_15 1
 f_7_15 pq_15_1 1.4
 f_8_12 cost 17
 f_8_12 src_8 1
 f_8_12 bal_12 1
 f_8_12 cap_12 1
 f_8_12 pq_12_1 1.3
 f_8_13 cost 17
 f_8_13 src_8 1
 f_8_13 bal_13 1
 f_8_13 cap_13 1
 f_8_13 pq_13_1 1.3
 f_8_14 cost 17
 f_8_14 src_8 1
 f_8_14 bal_14 1
 f_8_14 cap_14 1
 f_8_14 pq_14_1 1.3
 f_8_15 cost 17
 f_8_15 src_8 1
 f_8_15 bal_15 1
 f_8_15 cap_15 1
 f_8_15 pq_15_1 1.3
 f_9_12 cost 18
 f_9_12 src_9 1
 f_9_12 bal_12 1
 f_9_12 cap_12 1
 f_9_12 pq_12_1 1.2
 f_9_13 cost 18
 f_9_13 src_9 1
 f_9_13 bal_13 1
 f_9_13 cap_13 1
 f_9_13 pq_13_1 1.2
 f_9_15 cost 18
 f_9_15 src_9 1
 f_9_15 bal_15 1
 f_9_15 cap_15 1
 f_9_15 pq_15_1 1.2
 f_10_12 cost 19
 f_10_12 src_10 1
 f_10_12 bal_12 1
 f_10_12 cap_12 1
 f_10_12 pq_12_1 1.1
 f_10_13 cost 19
 f_10_13 src_10 1
 f_10_13 bal_13 1
 f_10_13 cap_13 1
 f_10_13 pq_13_1 1.1
 f_10_15 cost 19
 f_10_15 src_10 1
 f_10_15 bal_15 1
 f_10_15 cap_15 1
 f_10_15 pq_15_1 1.1
 f_11_12 cost 20
 f_11_12 src_11 1
 f_11_12 bal_12 1
 f_11_12 cap_12 1
 f_11_12 pq_12_1 1
 f_11_15 cost 20
 f_11_15 src_11 1
 f_11_15 bal_15 1
 f_11_15 cap_15 1
 f_11_15 pq_15_1 1
 f_12_16 cost -20
 f_12_16 dem_16 1
 f_12_16 bal_12 -1
 f_12_16 tq_16_1 -1.05
 f_12_17 cost -19.5
 f_12_17 dem_17 1
 f_12_17 bal_12 -1
 f_12_17 tq_17_1 -1.1
 f_12_18 cost -19
 f_12_18 dem_18 1
 f_12_18 bal_12 -1
 f_12_18 tq_18_1 -1.15
 f_12_19 cost -18.5
 f_12_19 dem_19 1
 f_12_19 bal_12 -1
 f_12_19 tq_19_1 -1.2
 f_12_20 cost -18
 f_12_20 dem_20 1
 f_12_20 bal_12 -1
 f_12_20 tq_20_1 -1.25
 f_12_21 cost -17.5
 f_12_21 dem_21 1
 f_12_21 bal_12 -1
 f_12_21 tq_21_1 -1.3
 f_12_22 cost -17
 f_12_22 dem_22 1
 f_12_22 bal_12 -1
 f_12_22 tq_22_1 -1.35
 f_12_23 cost -16.5
 f_12_23 dem_23 1
 f_12_23 bal_12 -1
 f_12_23 tq_23_1 -1.4
 f_12_24 cost -16
 f_12_24 dem_24 1
 f_12_24 bal_12 -1
 f_12_24 tq_24_1 -1.45
 f_12_25 cost -15.5
 f_12_25 dem_25 1
 f_12_25 bal_12 -1
 f_12_25 tq_25_1 -1.5
 f_12_26 cost -15
 f_12_26 dem_26 1
 f_12_26 bal_12 -1
 f_12_26 tq_26_1 -1.55
 f_12_27 cost -14.5
 f_12_27 dem_27 1
 f_12_27 bal_12 -1
 f_12_27 tq_27_1 -1.6
 f_12_28 cost -14
 f_12_28 dem_28 1
 f_12_28 bal_12 -1
 f_12_28 tq_28_1 -1.65
 f_12_29 cost -13.5
 f_12_29 dem_29 1
 f_12_29 bal_12 -1
 f_12_29 tq_29_1 -1.7
 f_12_30 cost -13
 f_12_30 dem_30 1
 f_12_30 bal_12 -1
 f_12_30 tq_30_1 -1.75
 f_12_31 cost -12.5
 f_12_31 dem_31 1
 f_12_31 bal_12 -1
 f_12_31 tq_31_1 -1.8
 f_13_16 cost -20
 f_13_16 dem_16 1
 f_13_16 bal_13 -1
 f_13_16 tq_16_1 -1.05
 f_13_17 cost -19.5
 f_13_17 dem_17 1
 f_13_17 bal_13 -1
 f_13_17 tq_17_1 -1.1
 f_13_18 cost -19
 f_13_18 dem_18 1
 f_13_18 bal_13 -1
 f_13_18 tq_18_1 -1.15
 f_13_19 cost -18.5
 f_13_19 dem_19 1
 f_13_19 bal_13 -1
 f_13_19 tq_19_1 -1.2
 f_13_20 cost -18
 f_13_20 dem_20 1
 f_13_20 bal_13 -1
 f_13_20 tq_20_1 -1.25
 f_13_21 cost -17.5
 f_13_21 dem_21 1
 f_13_21 bal_13 -1
 f_13_21 tq_21_1 -1.3
 f_13_22 cost -17
 f_13_22 dem_22 1
 f_13_22 bal_13 -1
 f_13_22 tq_22_1 -1.35
 f_13_23 cost -16.5
 f_13_23 dem_23 1
 f_13_23 bal_13 -1
 f_13_23 tq_23_1 -1.4
 f_13_24 cost -16
 f_13_24 dem_24 1
 f_13_24 bal_13 -1
 f_13_24 tq_24_1 -1.45
 f_13_25 cost -15.5
 f_13_25 dem_25 1
 f_13_25 bal_13 -1
 f_13_25 tq_25_1 -1.5
 f_13_26 cost -15
 f_13_26 dem_26 1
 f_13_26 bal_13 -1
 f_13_26 tq_26_1 -1.55
 f_13_27 cost -14.5
 f_13_27 dem_27 1
 f_13_27 bal_13 -1
 f_13_27 tq_27_1 -1.6
 f_13_28 cost -14
 f_13_28 dem_28 1
 f_13_28 bal_13 -1
 f_13_28 tq_28_1 -1.65
 f_13_29 cost -13.5
 f_13_29 dem_29 1
 f_13_29 bal_13 -1
 f_13_29 tq_29_1 -1.7
 f_13_30 cost -13
 f_13_30 dem_30 1
 f_13_30 bal_13 -1
 f_13_30 tq_30_1 -1.75
 f_13_31 cost -12.5
 f_13_31 dem_31 1
 f_13_31 bal_13 -1
 f_13_31 tq_31_1 -1.8
 f_14_16 cost -20
 f_14_16 dem_16 1
 f_14_16 bal_14 -1
 f_14_16 tq_16_1 -1.05
 f_14_17 cost -19.5
 f_14_17 dem_17 1
 f_14_17 bal_14 -1
 f_14_17 tq_17_1 -1.1
 f_14_18 cost -19
 f_14_18 dem_18 1
 f_14_18 bal_14 -1
 f_14_18 tq_18_1 -1.15
 f_14_19 cost -18.5
 f_14_19 dem_19 1
 f_14_19 bal_14 -1
 f_14_19 tq_19_1 -1.2
 f_14_20 cost -18
 f_14_20 dem_20 1
 f_14_20 bal_14 -1
 f_14_20 tq_20_1 -1.25
 f_14_21 cost -17.5
 f_14_21 dem_21 1
 f_14_21 bal_14 -1
 f_14_21 tq_21_1 -1.3
 f_14_22 cost -17
 f_14_22 dem_22 1
 f_14_22 bal_14 -1
 f_14_22 tq_22_1 -1.35
 f_14_23 cost -16.5
 f_14_23 dem_23 1
 f_14_23 bal_14 -1
 f_14_23 tq_23_1 -1.4
 f_14_24 cost -16
 f_14_24 dem_24 1
 f_14_24 bal_14 -1
 f_14_24 tq_24_1 -1.45
 f_14_25 cost -15.5
 f_14_25 dem_25 1
 f_14_25 bal_14 -1
 f_14_25 tq_25_1 -1.5
 f_14_26 cost -15
 f_14_26 dem_26 1
 f_14_26 bal_14 -1
 f_14_26 tq_26_1 -1.55
 f_14_27 cost -14.5
 f_14_27 dem_27 1
 f_14_27 bal_14 -1
 f_14_27 tq_27_1 -1.6
 f_14_28 cost -14
 f_14_28 dem_28 1
 f_14_28 bal_14 -1
 f_14_28 tq_28_1 -1.65
 f_14_29 cost -13.5
 f_14_29 dem_29 1
 f_14_29 bal_14 -1
 f_14_29 tq_29_1 -1.7
 f_14_30 cost -13
 f_14_30 dem_30 1
 f_14_30 bal_14 -1
 f_14_30 tq_30_1 -1.75
 f_14_31 cost -12.5
 f_14_31 dem_31 1
 f_14_31 bal_14 -1
 f_14_31 tq_31_1 -1.8
 f_15_16 cost -20
 f_15_16 dem_16 1
 f_15_16 bal_15 -1
 f_15_16 tq_16_1 -1.05
 f_15_17 cost -19.5
 f_15_17 dem_17 1
 f_15_17 bal_15 -1
 f_15_17 tq_17_1 -1.1
 f_15_18 cost -19
 f_15_18 dem_18 1
 f_15_18 bal_15 -1
 f_15_18 tq_18_1 -1.15
 f_15_19 cost -18.5
 f_15_19 dem_19 1
 f_15_19 bal_15 -1
 f_15_19 tq_19_1 -1.2
 f_15_20 cost -18
 f_15_20 dem_20 1
 f_15_20 bal_15 -1
 f_15_20 tq_20_1 -1.25
 f_15_21 cost -17.5
 f_15_21 dem_21 1
 f_15_21 bal_15 -1
 f_15_21 tq_21_1 -1.3
 f_15_22 cost -17
 f_15_22 dem_22 1
 f_15_22 bal_15 -1
 f_15_22 tq_22_1 -1.35
 f_15_23 cost -16.5
 f_15_23 dem_23 1
 f_15_23 bal_15 -1
 f_15_23 tq_23_1 -1.4
 f_15_24 cost -16
 f_15_24 dem_24 1
 f_15_24 bal_15 -1
 f_15_24 tq_24_1 -1.45
 f_15_25 cost -15.5
 f_15_25 dem_25 1
 f_15_25 bal_15 -1
 f_15_25 tq_25_1 -1.5
 f_15_26 cost -15
 f_15_26 dem_26 1
 f_15_26 bal_15 -1
 f_15_26 tq_26_1 -1.55
 f_15_27 cost -14.5
 f_15_27 dem_27 1
 f_15_27 bal_15 -1
 f_15_27 tq_27_1 -1.6
 f_15_28 cost -14
 f_15_28 dem_28 1
 f_15_28 bal_15 -1
 f_15_28 tq_28_1 -1.65
 f_15_29 cost -13.5
 f_15_29 dem_29 1
 f_15_29 bal_15 -1
 f_15_29 tq_29_1 -1.7
 f_15_30 cost -13
 f_15_30 dem_30 1
 f_15_30 bal_15 -1
 f_15_30 tq_30_1 -1.75
 f_15_31 cost -12.5
 f_15_31 dem_31 1
 f_15_31 bal_15 -1
 f_15_31 tq_31_1 -1.8
 p_12_1 cost 0
 p_13_1 cost 0
 p_14_1 cost 0
 p_15_1 cost 0
RHS
 rhs src_1 16
 rhs src_2 16
 rhs src_3 16
 rhs src_4 16
 rhs src_5 16
 rhs src_6 16
 rhs src_7 16
 rhs src_8 16
 rhs src_9 16
 rhs src_10 16
 rhs src_11 16
 rhs dem_16 1
 rhs dem_17 1
 rhs dem_18 1
 rhs dem_19 1
 rhs dem_20 1
 rhs dem_21 1
 rhs dem_22 1
 rhs dem_23 1
 rhs dem_24 1
 rhs dem_25 1
 rhs dem_26 1
 rhs dem_27 1
 rhs dem_28 1
 rhs dem_29 1
 rhs dem_30 1
 rhs dem_31 1
 rhs cap_12 16
 rhs cap_13 16
 rhs cap_14 16
 rhs cap_15 16
BOUNDS
 UP bnd f_1_12 16
 UP bnd f_1_14 16
 UP bnd f_2_12 16
 UP bnd f_2_13 16
 UP bnd f_2_14 16
 UP bnd f_3_12 16
 UP bnd f_3_13 16
 UP bnd f_3_14 16
 UP bnd f_4_12 16
 UP bnd f_4_13 16
 UP bnd f_4_14 16
 UP bnd f_4_15 16
 UP bnd f_5_13 16
 UP bnd f_5_14 16
 UP bnd f_5_15 16
 UP bnd f_6_14 16
 UP bnd f_6_15 16
 UP bnd f_7_13 16
 UP bnd f_7_14 16
 UP bnd f_7_15 16
 UP bnd f_8_12 16
 UP bnd f_8_13 16
 UP bnd f_8_14 16
 UP bnd f_8_15 16
 UP bnd f_9_12 16
 UP bnd f_9_13 16
 UP bnd f_9_15 16
 UP bnd f_10_12 16
 UP bnd f_10_13 16
 UP bnd f_10_15 16
 UP bnd f_11_12 16
 UP bnd f_11_15 16
 UP bnd f_12_16 1
 UP bnd f_12_17 1
 UP bnd f_12_18 1
 UP bnd f_12_19 1
 UP bnd f_12_20 1
 UP bnd f_12_21 1
 UP bnd f_12_22 1
 UP bnd f_12_23 1
 UP bnd f_12_24 1
 UP bnd f_12_25 1
 UP bnd f_12_26 1
 UP bnd f_12_27 1
 UP bnd f_12_28 1
 UP bnd f_12_29 1
 UP bnd f_12_30 1
 UP bnd f_12_31 1
 UP bnd f_13_16 1
 UP bnd f_13_17 1
 UP bnd f_13_18 1
 UP bnd f_13_19 1
 UP bnd f_13_20 1
 UP bnd f_13_21 1
 UP bnd f_13_22 1
 UP bnd f_13_23 1
 UP bnd f_13_24 1
 UP bnd f_13_25 1
 UP bnd f_13_26 1
 UP bnd f_13_27 1
 UP bnd f_13_28 1
 UP bnd f_13_29 1
 UP bnd f_13_30 1
 UP bnd f_13_31 1
 UP bnd f_14_16 1
 UP bnd f_14_17 1
 UP bnd f_14_18 1
 UP bnd f_14_19 1
 UP bnd f_14_20 1
 UP bnd f_14_21 1
 UP bnd f_14_22 1
 UP bnd f_14_23 1
 UP bnd f_14_24 1
 UP bnd f_14_25 1
 UP bnd f_14_26 1
 UP bnd f_14_27 1
 UP bnd f_14_28 1
 UP bnd f_14_29 1
 UP bnd f_14_30 1
 UP bnd f_14_31 1
 UP bnd f_15_16 1
 UP bnd f_15_17 1
 UP bnd f_15_18 1
 UP bnd f_15_19 1
 UP bnd f_15_20 1
 UP bnd f_15_21 1
 UP bnd f_15_22 1
 UP bnd f_15_23 1
 UP bnd f_15_24 1
 UP bnd f_15_25 1
 UP bnd f_15_26 1
 UP bnd f_15_27 1
 UP bnd f_15_28 1
 UP bnd f_15_29 1
 UP bnd f_15_30 1
 UP bnd f_15_31 1
 LO bnd p_12_1 1
 UP bnd p_12_1 2
 LO bnd p_13_1 1.1
 UP bnd p_13_1 1.9
 LO bnd p_14_1 1.3
 UP bnd p_14_1 2
 LO bnd p_15_1 1
 UP bnd p_15_1 1.7
QCMATRIX pq_12_1
 f_12_16 p_12_1 -0.5
 p_12_1 f_12_16 -0.5
 f_12_17 p_12_1 -0.5
 p_12_1 f_12_17 -0.5
 f_12_18 p_12_1 -0.5
 p_12_1 f_12_18 -0.5
 f_12_19 p_12_1 -0.5
 p_12_1 f_12_19 -0.5
 f_12_20 p_12_1 -0.5
 p_12_1 f_12_20 -0.5
 f_12_21 p_12_1 -0.5
 p_12_1 f_12_21 -0.5
 f_12_22 p_12_1 -0.5
 p_12_1 f_12_22 -0.5
 f_12_23 p_12_1 -0.5
 p_12_1 f_12_23 -0.5
 f_12_24 p_12_1 -0.5
 p_12_1 f_12_24 -0.5
 f_12_25 p_12_1 -0.5
 p_12_1 f_12_25 -0.5
 f_12_26 p_12_1 -0.5
 p_12_1 f_12_26 -0.5
 f_12_27 p_12_1 -0.5
 p_12_1 f_12_27 -0.5
 f_12_28 p_12_1 -0.5
 p_12_1 f_12_28 -0.5
 f_12_29 p_12_1 -0.5
 p_12_1 f_12_29 -0.5
 f_12_30 p_12_1 -0.5
 p_12_1 f_12_30 -0.5
 f_12_31 p_12_1 -0.5
 p_12_1 f_12_31 -0.5
QCMATRIX pq_13_1
 f_13_16 p_13_1 -0.5
 p_13_1 f_13_16 -0.5
 f_13_17 p_13_1 -0.5
 p_13_1 f_13_17 -0.5
 f_13_18 p_13_1 -0.5
 p_13_1 f_13_18 -0.5
 f_13_19 p_13_1 -0.5
 p_13_1 f_13_19 -0.5
 f_13_20 p_13_1 -0.5
 p_13_1 f_13_20 -0.5
 f_13_21 p_13_1 -0.5
 p_13_1 f_13_21 -0.5
 f_13_22 p_13_1 -0.5
 p_13_1 f_13_22 -0.5
 f_13_23 p_13_1 -0.5
 p_13_1 f_13_23 -0.5
 f_13_24 p_13_1 -0.5
 p_13_1 f_13_24 -0.5
 f_13_25 p_13_1 -0.5
 p_13_1 f_13_25 -0.5
 f_13_26 p_13_1 -0.5
 p_13_1 f_13_26 -0.5
 f_13_27 p_13_1 -0.5
 p_13_1 f_13_27 -0.5
 f_13_28 p_13_1 -0.5
 p_13_1 f_13_28 -0.5
 f_13_29 p_13_1 -0.5
 p_13_1 f_13_29 -0.5
 f_13_30 p_13_1 -0.5
 p_13_1 f_13_30 -0.5
 f_13_31 p_13_1 -0.5
 p_13_1 f_13_31 -0.5
QCMATRIX pq_14_1
 f_14_16 p_14_1 -0.5
 p_14_1 f_14_16 -0.5
 f_14_17 p_14_1 -0.5
 p_14_1 f_14_17 -0.5
 f_14_18 p_14_1 -0.5
 p_14_1 f_14_18 -0.5
 f_14_19 p_14_1 -0.5
 p_14_1 f_14_19 -0.5
 f_14_20 p_14_1 -0.5
 p_14_1 f_14_20 -0.5
 f_14_21 p_14_1 -0.5
 p_14_1 f_14_21 -0.5
 f_14_22 p_14_1 -0.5
 p_14_1 f_14_22 -0.5
 f_14_23 p_14_1 -0.5
 p_14_1 f_14_23 -0.5
 f_14_24 p_14_1 -0.5
 p_14_1 f_14_24 -0.5
 f_14_25 p_14_1 -0.5
 p_14_1 f_14_25 -0.5
 f_14_26 p_14_1 -0.5
 p_14_1 f_14_26 -0.5
 f_14_27 p_14_1 -0.5
 p_14_1 f_14_27 -0.5
 f_14_28 p_14_1 -0.5
 p_14_1 f_14_28 -0.5
 f_14_29 p_14_1 -0.5
 p_14_1 f_14_29 -0.5
 f_14_30 p_14_1 -0.5
 p_14_1 f_14_30 -0.5
 f_14_31 p_14_1 -0.5
 p_14_1 f_14_31 -0.5
QCMATRIX pq_15_1
 f_15_16 p_15_1 -0.5
 p_15_1 f_15_16 -0.5
 f_15_17 p_15_1 -0.5
 p_15_1 f_15_17 -0.5
 f_15_18 p_15_1 -0.5
 p_15_1 f_15_18 -0.5
 f_15_19 p_15_1 -0.5
 p_15_1 f_15_19 -0.5
 f_15_20 p_15_1 -0.5
 p_15_1 f_15_20 -0.5
 f_15_21 p_15_1 -0.5
 p_15_1 f_15_21 -0.5
 f_15_22 p_15_1 -0.5
 p_15_1 f_15_22 -0.5
 f_15_23 p_15_1 -0.5
 p_15_1 f_15_23 -0.5
 f_15_24 p_15_1 -0.5
 p_15_1 f_15_24 -0.5
 f_15_25 p_15_1 -0.5
 p_15_1 f_15_25 -0.5
 f_15_26 p_15_1 -0.5
 p_15_1 f_15_26 -0.5
 f_15_27 p_15_1 -0.5
 p_15_1 f_15_27 -0.5
 f_15_28 p_15_1 -0.5
 p_15_1 f_15_28 -0.5
 f_15_29 p_15_1 -0.5
 p_15_1 f_15_29 -0.5
 f_15_30 p_15_1 -0.5
 p_15_1 f_15_30 -0.5
 f_15_31 p_15_1 -0.5
 p_15_1 f_15_31 -0.5
QCMATRIX tq_16_1
 f_12_16 p_12_1 0.5
 p_12_1 f_12_16 0.5
 f_13_16 p_13_1 0.5
 p_13_1 f_13_16 0.5
 f_14_16 p_14_1 0.5
 p_14_1 f_14_16 0.5
 f_15_16 p_15_1 0.5
 p_15_1 f_15_16 0.5
QCMATRIX tq_17_1
 f_12_17 p_12_1 0.5
 p_12_1 f_12_17 0.5
 f_13_17 p_13_1 0.5
 p_13_1 f_13_17 0.5
 f_14_17 p_14_1 0.5
 p_14_1 f_14_17 0.5
 f_15_17 p_15_1 0.5
 p_15_1 f_15_17 0.5
QCMATRIX tq_18_1
 f_12_18 p_12_1 0.5
 p_12_1 f_12_18 0.5
 f_13_18 p_13_1 0.5
 p_13_1 f_13_18 0.5
 f_14_18 p_14_1 0.5
 p_14_1 f_14_18 0.5
 f_15_18 p_15_1 0.5
 p_15_1 f_15_18 0.5
QCMATRIX tq_19_1
 f_12_19 p_12_1 0.5
 p_12_1 f_12_19 0.5
 f_13_19 p_13_1 0.5
 p_13_1 f_13_19 0.5
 f_14_19 p_14_1 0.5
 p_14_1 f_14_19 0.5
 f_15_19 p_15_1 0.5
 p_15_1 f_15_19 0.5
QCMATRIX tq_20_1
 f_12_20 p_12_1 0.5
 p_12_1 f_12_20 0.5
 f_13_20 p_13_1 0.5
 p_13_1 f_13_20 0.5
 f_14_20 p_14_1 0.5
 p_14_1 f_14_20 0.5
 f_15_20 p_15_1 0.5
 p_15_1 f_15_20 0.5
QCMATRIX tq_21_1
 f_12_21 p_12_1 0.5
 p_12_1 f_12_21 0.5
 f_13_21 p_13_1 0.5
 p_13_1 f_13_21 0.5
 f_14_21 p_14_1 0.5
 p_14_1 f_14_21 0.5
 f_15_21 p_15_1 0.5
 p_15_1 f_15_21 0.5
QCMATRIX tq_22_1
 f_12_22 p_12_1 0.5
 p_12_1 f_12_22 0.5
 f_13_22 p_13_1 0.5
 p_13_1 f_13_22 0.5
 f_14_22 p_14_1 0.5
 p_14_1 f_14_22 0.5
 f_15_22 p_15_1 0.5
 p_15_1 f_15_22 0.5
QCMATRIX tq_23_1
 f_12_23 p_12_1 0.5
 p_12_1 f_12_23 0.5
 f_13_23 p_13_1 0.5
 p_13_1 f_13_23 0.5
 f_14_23 p_14_1 0.5
 p_14_1 f_14_23 0.5
 f_15_23 p_15_1 0.5
 p_15_1 f_15_23 0.5
QCMATRIX tq_24_1
 f_12_24 p_12_1 0.5
 p_12_1 f_12_24 0.5
 f_13_24 p_13_1 0.5
 p_13_1 f_13_24 0.5
 f_14_24 p_14_1 0.5
 p_14_1 f_14_24 0.5
 f_15_24 p_15_1 0.5
 p_15_1 f_15_24 0.5
QCMATRIX tq_25_1
 f_12_25 p_12_1 0.5
 p_12_1 f_12_25 0.5
 f_13_25 p_13_1 0.5
 p_13_1 f_13_25 0.5
 f_14_25 p_14_1 0.5
 p_14_1 f_14_25 0.5
 f_15_25 p_15_1 0.5
 p_15_1 f_15_25 0.5
QCMATRIX tq_26_1
 f_12_26 p_12_1 0.5
 p_12_1 f_12_26 0.5
 f_13_26 p_13_1 0.5
 p_13_1 f_13_26 0.5
 f_14_26 p_14_1 0.5
 p_14_1 f_14_26 0.5
 f_15_26 p_15_1 0.5
 p_15_1 f_15_26 0.5
QCMATRIX tq_27_1
 f_12_27 p_12_1 0.5
 p_12_1 f_12_27 0.5
 f_13_27 p_13_1 0.5
 p_13_1 f_13_27 0.5
 f_14_27 p_14_1 0.5
 p_14_1 f_14_27 0.5
 f_15_27 p_15_1 0.5
 p_15_1 f_15_27 0.5
QCMATRIX tq_28_1
 f_12_28 p_12_1 0.5
 p_12_1 f_12_28 0.5
 f_13_28 p_13_1 0.5
 p_13_1 f_13_28 0.5
 f_14_28 p_14_1 0.5
 p_14_1 f_14_28 0.5
 f_15_28 p_15_1 0.5
 p_15_1 f_15_28 0.5
QCMATRIX tq_29_1
 f_12_29 p_12_1 0.5
 p_12_1 f_12_29 0.5
 f_13_29 p_13_1 0.5
 p_13_1 f_13_29 0.5
 f_14_29 p_14_1 0.5
 p_14_1 f_14_29 0.5
 f_15_29 p_15_1 0.5
 p_15_1 f_15_29 0.5
QCMATRIX tq_30_1
 f_12_30 p_12_1 0.5
 p_12_1 f_12_30 0.5
 f_13_30 p_13_1 0.5
 p_13_1 f_13_30 0.5
 f_14_30 p_14_1 0.5
 p_14_1 f_14_30 0.5
 f_15_30 p_15_1 0.5
 p_15_1 f_15_30 0.5
QCMATRIX tq_31_1
 f_12_31 p_12_1 0.5
 p_12_1 f_12_31 0.5
 f_13_31 p_13_1 0.5
 p_13_1 f_13_31 0.5
 f_14_31 p_14_1 0.5
 p_14_1 f_14_31 0.5
 f_15_31 p_15_1 0.5
 p_15_1 f_15_31 0.5
ENDATA
